*Heading
 C:\Users\CAMILA CASTRO\Documents\SHARON DANIELA\AT_Mesh\Nueva carpeta\CFC1.inp
*NODE
1, 65.227684020996, 68.111961364746, -20.826148986816
2, 64.497200633417, 67.679758307801, -20.695880728104
3, 63.722277829186, 67.497159179451, -21.282474131696
4, 62.8417450679, 67.572129668, -21.065417050467
5, 62.013913331891, 67.647551584444, -21.605361186113
6, 61.170607613438, 67.790750061564, -22.105498060874
7, 60.354105539862, 67.958620619674, -22.591641874081
8, 60.149805900751, 67.861930797133, -23.55366548517
9, 59.563192906856, 67.888896545095, -24.296756441216
10, 59.325910746788, 67.805872956353, -25.131732326347
11, 58.497277266365, 67.93986076771, -25.647494227358
12, 57.788172934116, 68.019707884, -26.174246685219
13, 56.985641487574, 68.150764193523, -26.448743863884
14, 56.1267423105, 68.28531414259, -26.585096458771
15, 55.776564953305, 68.196680665088, -27.432216965691
16, 55.213343055834, 68.109843906408, -28.202061943682
17, 54.934167643045, 67.832387106207, -29.110285954824
18, 54.233875919863, 67.675484815646, -29.778597229868
19, 53.881652269812, 67.465780777238, -30.525635060662
20, 53.440109663989, 67.333462573601, -31.367621632088
21, 53.171485762794, 67.173256735974, -32.278581720265
22, 52.951120253175, 66.989369606811, -33.227183135282
23, 53.051843333274, 66.942630475811, -34.068512582162
24, 53.139444034993, 67.545861005114, -34.498991078703
25, 52.66823322432, 68.114832818816, -34.010273188739
26, 53.494650682218, 68.519685291794, -33.669030740502
27, 54.30559432511, 68.730518608772, -33.460354890673
28, 54.94473068183, 69.216590505184, -32.891074418631
29, 55.56338184204, 69.706489316214, -32.292441373005
30, 55.791758654246, 70.211271361979, -31.599227137833
31, 55.674244469268, 70.726959328539, -30.767508815922
32, 55.567987992377, 71.185153941709, -29.900712118747
33, 54.939624092001, 71.560766415994, -29.337260640739
34, 55.133563617229, 71.939610931266, -28.467051102925
35, 55.377369327222, 72.287910064879, -27.571214451037
36, 55.76249680048, 72.55582053917, -26.825681532612
37, 56.279413944668, 72.511160179716, -26.116554807604
38, 56.684602807967, 72.165311210505, -25.347928190495
39, 57.450033999658, 71.757926574478, -24.871385184649
40, 58.169865373329, 71.373042447023, -24.308970226542
41, 59.009842957589, 71.089465662848, -24.049739371814
42, 59.695297378932, 70.836379002841, -23.511545505277
43, 60.419884468178, 70.613740711692, -22.968879845854
44, 60.870581867827, 70.457568138193, -22.186502220785
45, 61.461233431897, 70.290906043868, -21.537059238902
46, 62.417207981185, 70.050543377614, -21.470562032386
47, 63.32593367853, 69.773431315508, -21.493673811508
48, 64.20691761739, 69.394351956141, -21.25665970194
49, 64.981688318908, 68.801651072672, -21.200431039925
50, 54.11426023302, 69.34630850905, -32.778548830774
51, 58.388290661902, 68.095263553834, -24.902067132592
52, 61.745836395683, 67.756537200089, -20.222182866665
53, 58.743182775175, 71.012714852606, -23.177137242671
54, 55.826293731417, 72.331693168991, -25.206261500888
55, 59.503200470956, 68.239451568643, -22.182709731695
56, 64.771702873673, 67.867833502418, -19.904604604442
57, 57.279205443849, 71.482685587576, -23.852983249729
58, 62.692495826402, 67.619999437742, -20.190017511338
59, 52.812540775563, 68.763580361339, -33.302832569789
60, 63.759946843794, 69.559066007464, -20.476475848565
61, 51.804057595395, 68.11059189391, -33.705521001006
62, 54.838253976392, 68.329413680088, -27.355013180404
63, 54.923764936138, 72.602333373845, -27.000179060188
64, 51.755231167185, 68.881494592239, -32.938511235939
65, 53.376062062307, 67.788283189841, -29.811299303667
66, 52.557940161835, 67.517264386262, -31.451223770679
67, 56.094963861546, 68.471610384094, -25.574481418984
68, 55.188802223252, 68.474425842363, -26.327296406
69, 54.453299448086, 68.48541009546, -26.670362539442
70, 55.178595386221, 68.662433611067, -25.180474609169
71, 56.056520905695, 68.623099946387, -24.666394224307
72, 55.248562442503, 68.850278252204, -24.256198332247
73, 54.446640132783, 68.847663974688, -24.633323299982
74, 54.601101290795, 69.040284736936, -23.800635701227
75, 56.05667875346, 68.885401698845, -23.585063009062
76, 53.986903920253, 69.001441933486, -24.094083158494
77, 53.955810302737, 69.11306238087, -23.314504270239
78, 53.250156100575, 69.066294937235, -23.867562024292
79, 53.158051356178, 69.13549995473, -22.896658208643
80, 52.506589189536, 69.106355027913, -23.526063429383
81, 53.97774642877, 69.102680786722, -22.352601554778
82, 53.109811131115, 69.151343862242, -21.895697795528
83, 53.919462940396, 69.110168306644, -21.358126551244
84, 52.995577305648, 69.27416301275, -20.934818913706
85, 53.843241517674, 69.240737502112, -20.389994565695
86, 52.190117576119, 69.285233014326, -21.416459648029
87, 52.009372699833, 69.687920755115, -20.542723559981
88, 51.185814901514, 69.618772039122, -20.959194913323
89, 51.281467944866, 70.670556215011, -20.778156267764
90, 50.291427009966, 70.250304987302, -20.891837364554
91, 51.075519057536, 71.184909690597, -21.379705788994
92, 49.80457823956, 71.015930117143, -21.423962407903
93, 52.435497562314, 71.101751359423, -21.061450914336
94, 51.590529175915, 71.7073464465, -22.405552193465
95, 54.767566270813, 69.039044485985, -20.871220042435
96, 54.746719963756, 69.139817859975, -19.850893947576
97, 55.64799994325, 68.919988151778, -20.388166570641
98, 55.672958131397, 68.995581764912, -19.358956422214
99, 54.862526837934, 69.551387065506, -18.938689146819
100, 55.88440883121, 69.505431962008, -18.54657508419
101, 56.644704003043, 68.849451243809, -18.9713906152
102, 56.8953427806, 69.459340412538, -18.265150070904
103, 55.431245469102, 70.314127259919, -18.929991118376
104, 57.588674372694, 68.780501722351, -18.561647325188
105, 57.856649677413, 69.433805008105, -18.006754057394
106, 60.010468436617, 70.622672236622, -21.960483487811
107, 57.404455330142, 70.19943932199, -18.360658903481
108, 58.529331158245, 68.793157242448, -18.178130065865
109, 58.813719800697, 69.574733671497, -17.848847302263
110, 52.644255628202, 68.927929934094, -24.544535466898
111, 51.89222439652, 68.980579401136, -24.160517874267
112, 51.811955512733, 68.797668878357, -25.132981291919
113, 51.043480493436, 68.807374113867, -24.761544038976
114, 50.943678282572, 68.642833879241, -25.702747578583
115, 50.19188998279, 68.634016789694, -25.213817116412
116, 50.15558033839, 68.427560055074, -26.286021171836
117, 49.408292287403, 68.437507049012, -25.657961081938
118, 49.25567965138, 68.265649140501, -26.644245038523
119, 48.583260113834, 68.318951224374, -26.015205158531
120, 48.401956203633, 68.258843788892, -26.960455190307
121, 47.823124493194, 68.604072711487, -26.32019206818
122, 47.662618585328, 68.657080230331, -27.285971516864
123, 47.377609671117, 69.284924998793, -26.645787677153
124, 47.363746580295, 69.461195726666, -27.633305255721
125, 47.333674223262, 70.119354578185, -26.903343318767
126, 47.586270853848, 70.483014774296, -27.993660368443
127, 47.562803250293, 71.010389874046, -26.972498494153
128, 48.379882785394, 71.548641417459, -27.760853206051
129, 54.471420911944, 71.424216589512, -29.659949958126
130, 48.289771541622, 68.311905036252, -27.912937357685
131, 48.36036303119, 71.012222189119, -28.727139851235
132, 48.109302400881, 71.757817020836, -26.760399907303
133, 49.132524757961, 72.163402202314, -27.181347974742
134, 47.287431441211, 69.839983057943, -26.109926995693
135, 48.783515814372, 68.538867354508, -25.070825327449
136, 48.641415654812, 72.27627977994, -26.197007627192
137, 49.597069744179, 72.574984676637, -26.355061566819
138, 50.485300287677, 72.464314344296, -27.234573852164
139, 50.632422779473, 72.758876719023, -26.337005503649
140, 49.97613572957, 72.81061139393, -25.573591754056
141, 50.433235573244, 69.526678481932, -21.349958881409
142, 50.926713810196, 72.93311918424, -25.559438681452
143, 54.910178380924, 70.525831920951, -31.280660762273
144, 51.042229114944, 68.424641811694, -26.925473147535
145, 51.464210084656, 72.690380492278, -26.919197010915
146, 51.508341449811, 72.155248490418, -28.194739737936
147, 58.470784929883, 68.398808608763, -19.272432054494
148, 59.476833925805, 68.886030160116, -17.860823904191
149, 59.830419006017, 69.763027735343, -17.837148688499
150, 61.677857008316, 70.182433513012, -20.592418053594
151, 60.495503875057, 68.992088322257, -17.795762253905
152, 50.412461819785, 72.885208548489, -24.772681243675
153, 51.338590877167, 72.979571854408, -24.731866003842
154, 49.466830516506, 72.66569651442, -24.692707991183
155, 53.943827443218, 68.393500392809, -27.374761638184
156, 54.387669812219, 70.29127064768, -19.272949738495
157, 55.092308653413, 70.735757045366, -19.856003765125
158, 50.084079637092, 72.488030270956, -23.998871426135
159, 49.093220559137, 72.195188817292, -23.799469748375
160, 50.366313925533, 68.839612312209, -24.347882060198
161, 60.795658373539, 70.37368666452, -20.64742681188
162, 59.818341403502, 70.576044894788, -20.939501362318
163, 63.724047724692, 67.586155393871, -20.049767377192
164, 63.844481250711, 67.733466806222, -19.042305089686
165, 56.096822421307, 70.692325136371, -19.611062785458
166, 55.846239205911, 70.971923714321, -20.640827417457
167, 56.629453326515, 70.861312339173, -20.30783688002
168, 54.843109567316, 71.05954335211, -20.832246821098
169, 55.554758963844, 71.202851815242, -21.540365461289
170, 54.552124490301, 71.343139071506, -21.784197008803
171, 55.213760567055, 71.475746535149, -22.506536604956
172, 54.237109591869, 71.659585452667, -22.704444896862
173, 60.830365996825, 69.79130273725, -18.087724619629
174, 61.52734223881, 69.07621764007, -17.883063429763
175, 61.729909757188, 69.746221309966, -18.51648881769
176, 60.082059332716, 68.269558128282, -18.394157151338
177, 55.645845199114, 68.931145702318, -21.434861866009
178, 56.49538756957, 68.799663467598, -20.922350542586
179, 59.139657547824, 70.275933161707, -18.439161733414
180, 49.776399669372, 71.960182782684, -28.096077120486
181, 62.321410049147, 67.759280700624, -18.864206204439
182, 60.153055815871, 70.426735875985, -20.012434014625
183, 47.941799426283, 71.888136057325, -25.963846234001
184, 52.358059395645, 69.484191919465, -32.507924665254
185, 51.474283163731, 69.460059064404, -32.373434465462
186, 51.941191637462, 70.063254417253, -31.833916608355
187, 51.063257902445, 69.970256214757, -31.775623562054
188, 51.519038018112, 70.512985261807, -31.164670742462
189, 50.593125997749, 70.413594914381, -31.084907488257
190, 50.199345715228, 69.849942280729, -31.639178357779
191, 51.139441354507, 68.284231771963, -33.07443257227
192, 51.586655285138, 67.694445710652, -33.086725524117
193, 51.123660180245, 70.907856003835, -30.452154252298
194, 52.092399740885, 70.951617410602, -30.550418598299
195, 49.705491373911, 70.253444307367, -30.953135279986
196, 49.331270082797, 69.620588049045, -31.469277217869
197, 48.813982771716, 69.941616775242, -30.837469545532
198, 48.666984946624, 69.316682975669, -31.281969004192
199, 48.162607913682, 69.403460294666, -30.728925287018
200, 48.512590521729, 68.671739184425, -31.028469320596
201, 47.458831833539, 69.520734273019, -28.706874901175
202, 51.701600937113, 69.121472957839, -23.207031825987
203, 54.93567138455, 71.862772453937, -23.449055988498
204, 54.011000541861, 72.069096849198, -23.558616116181
205, 55.388588465521, 72.670118483016, -25.924461827309
206, 54.39508787067, 72.848611629917, -26.332318844489
207, 53.969866447759, 72.606931899303, -27.215193562753
208, 62.408204719602, 69.211159847345, -18.161630280315
209, 49.886171653907, 72.007097338399, -23.174483583605
210, 48.93030167389, 71.756667561864, -22.895508594708
211, 48.070009700349, 71.841406963032, -23.637558690093
212, 48.039155647177, 71.371031762676, -22.565711039106
213, 47.233285576812, 71.255761527383, -23.243603856764
214, 47.321799743369, 70.591819204419, -22.39900009654
215, 46.93285814219, 70.307339979458, -23.258066053206
216, 47.643733637057, 69.704135656516, -22.683372006324
217, 47.340128309108, 69.538311302379, -23.810899971718
218, 48.250274193353, 69.181080932996, -23.449621518771
219, 48.817677890927, 69.321619103885, -22.631004836589
220, 46.891343837181, 70.851410276792, -24.141911373242
221, 48.163275181226, 70.622241746821, -21.769743552752
222, 53.656831452658, 68.577245454323, -26.527208437632
223, 54.903268351742, 72.466206643417, -24.955909328417
224, 53.019320289668, 68.44910819261, -27.22594127863
225, 53.446578307558, 68.300041154695, -28.172491875819
226, 53.38440570965, 72.886654521356, -26.428136746374
227, 53.01697267586, 70.110672071535, -31.91271833801
228, 47.922657718611, 68.649586705896, -30.235920120289
229, 48.798722960729, 68.238596008607, -30.359297940995
230, 49.382597189202, 68.220373084882, -31.146863554749
231, 49.740357796715, 68.062674105799, -30.402506844428
232, 51.217355040672, 67.906556766224, -32.376707854185
233, 49.412649896229, 68.146345637294, -29.593594253209
234, 50.521267713474, 68.041526672145, -29.804822557953
235, 50.194810216054, 68.176640854097, -28.843818510742
236, 51.158080249635, 68.198223820886, -28.799237425181
237, 51.712436208063, 71.336011619753, -29.803074224887
238, 50.737372223117, 71.30758577234, -29.655630419758
239, 49.142665376356, 70.62750163669, -30.079890528235
240, 56.222636272, 71.290509106162, -22.284245196951
241, 62.550006248933, 69.726614835789, -19.084325081148
242, 59.249922151226, 70.572152147548, -20.076648044735
243, 58.577666323106, 70.762728202086, -20.868693482824
244, 62.642516209429, 69.918323055293, -20.369016949263
245, 56.434104131867, 68.861798827806, -21.980540458251
246, 57.275360643534, 68.708644676596, -21.528020813987
247, 57.14803710914, 68.768822968589, -22.469978404457
248, 53.839283955928, 68.033904165961, -28.988419959941
249, 50.717264796184, 72.241358967016, -23.50021731872
250, 55.646736524179, 68.9798222929, -22.591886759926
251, 57.49191345447, 68.610734712424, -20.470899207476
252, 58.191640368629, 68.534046024638, -21.26984369918
253, 52.654173503553, 71.304118184614, -29.956247470065
254, 53.038753765177, 70.917590222234, -30.690609088388
255, 51.625702195945, 67.998885495452, -29.658442026451
256, 51.226226404712, 67.873963265467, -30.470268682473
257, 58.266771163639, 70.6611407941, -19.889002475915
258, 56.916928399594, 68.566944618173, -24.197340760996
259, 53.934086323444, 71.153343471039, -21.082004115052
260, 52.17960224677, 67.469062912875, -32.508463094814
261, 48.563362899171, 72.338982087287, -24.577314627238
262, 51.900088041489, 72.969115325737, -25.523110831012
263, 52.35141193962, 72.913674362273, -24.699831221074
264, 52.511872294475, 68.344405067498, -28.010212708241
265, 53.925404850611, 72.795975237656, -25.470669300629
266, 59.225309832648, 68.132337234148, -23.55200600603
267, 53.100820443968, 72.593356324195, -27.316309449322
268, 53.862779713635, 72.237478367767, -28.048791838786
269, 52.929501187086, 72.093285166192, -28.429009951727
270, 50.50829632777, 68.506022197741, -32.422767295393
271, 56.878947181331, 68.418374732122, -24.98805734408
272, 48.623893194777, 68.257255002245, -29.495318724706
273, 48.278833979547, 70.108738942003, -30.053172098997
274, 53.229897963568, 71.850302349478, -22.915140931018
275, 63.233529857224, 69.275501801891, -18.5902501053
276, 64.671205293209, 68.430345502364, -19.013834881937
277, 64.92566882574, 68.680739301156, -19.996359141044
278, 49.982026859585, 68.278363193722, -27.243614622227
279, 52.305257201839, 67.640948255238, -34.242212537529
280, 50.673841755944, 71.832425359055, -22.718576007028
281, 52.765117203408, 68.646898319796, -26.371900571107
282, 49.267013750713, 69.080777847112, -23.312868483089
283, 49.887789603637, 69.229777569812, -22.571408249318
284, 49.434791942052, 69.48488077796, -21.753231583918
285, 52.942979701013, 72.479065334934, -23.939369045138
286, 56.444487297895, 71.886997300445, -24.460923821953
287, 56.051129749277, 71.627731647728, -23.413719759337
288, 61.003059515657, 70.102331692908, -18.994244039079
289, 57.169265440397, 70.652315482152, -19.45999194863
290, 53.39361662655, 68.734604166723, -25.78020983647
291, 64.2669019581, 69.172323144586, -19.664214238146
292, 54.126095568908, 70.783757739148, -20.173046790704
293, 47.734552348938, 68.708369632515, -29.238671503432
294, 48.074683906202, 68.862579646674, -24.419187177649
295, 47.426245123266, 69.321702990753, -24.837647814039
296, 53.216191290172, 70.890094480176, -20.591707842355
297, 53.392322868212, 70.346520698463, -19.779085182292
298, 53.749225949366, 71.856085438777, -28.900805572627
299, 56.66580396507, 71.050298480565, -21.295372777207
300, 57.244478676703, 71.12872718964, -22.226222565683
301, 57.722224603056, 70.947467677277, -21.472390889032
302, 51.635404411464, 72.550866868188, -23.863384625491
303, 58.503702171589, 68.416411242086, -20.360662169425
304, 59.299869638404, 68.299005565562, -21.216349853917
305, 59.495868772883, 68.194819233423, -19.981511506157
306, 60.305510552661, 68.061364350721, -20.684597536391
307, 60.477776349767, 67.98770180019, -19.832191555501
308, 61.237130323065, 67.858036650212, -21.055497017711
309, 47.858669037892, 72.008493459801, -24.522442815368
310, 52.266935771483, 72.037971278858, -23.14831561059
311, 57.446782570526, 68.602588034243, -19.477882408802
312, 61.78487076644, 70.048626305368, -19.680857282077
313, 50.710969255479, 68.002680511697, -31.781648915912
314, 49.0161661018, 71.547945020797, -28.434814510952
315, 59.717624290477, 70.397074582391, -19.3035860886
316, 52.904138915048, 68.131434340061, -28.957460076722
317, 52.274485090999, 71.717181942203, -29.156738356674
318, 53.900421709404, 72.531639435037, -24.438480619036
319, 52.213801383633, 67.267088802238, -33.561572093801
320, 64.496412406562, 69.175234468347, -20.453282071017
321, 49.877375317725, 71.596503117936, -22.283234042023
322, 52.967703102804, 67.60047814229, -30.608686433612
323, 55.468599519201, 72.072460720404, -24.260588267788
324, 59.462378657747, 68.204563756103, -19.14233335463
325, 51.327957219926, 71.777529708739, -28.912093714436
326, 50.492066390199, 71.703637152445, -28.859817923361
327, 58.323318412668, 70.969600170259, -22.290649452458
328, 57.790728376516, 71.184831588489, -23.014121614706
329, 56.400092222437, 70.294322582149, -18.608386559172
330, 49.935243334246, 71.219105846778, -29.543030839619
331, 52.936988741205, 72.910975160205, -25.570031865494
332, 48.917865806693, 68.828770968139, -24.124141564696
333, 62.216097578545, 68.285013284395, -18.097387737897
334, 47.628506087077, 68.740347573705, -28.283028492084
335, 59.139794955098, 70.761396078074, -21.722539112992
336, 59.445610076515, 70.792908456528, -22.587283640085
337, 63.389192336673, 69.559842997412, -19.540644575256
338, 50.656302572477, 68.272041398965, -27.941529988758
339, 51.487109734122, 67.76671627642, -31.412737818042
340, 50.338015563998, 69.064901899776, -23.390908931856
341, 50.855964493303, 69.18321813709, -22.577299060684
342, 58.183800277805, 70.481217661183, -18.899619283709
343, 47.125839816466, 70.062850707473, -24.634239746557
344, 47.133338078719, 70.663497655753, -25.050194495434
345, 57.945469294229, 68.609514148268, -22.145385721191
346, 57.759728586668, 68.619303008123, -22.94304095869
347, 58.73918801421, 68.437219039813, -21.95972592829
348, 52.34436487601, 69.162596676093, -22.43809583777
349, 52.259986681879, 72.839847734624, -26.509777680722
350, 49.156197098966, 68.218894592363, -27.623056822984
351, 49.034078374076, 71.357901355867, -22.07976313069
352, 54.670335654565, 69.075521265619, -22.876585580487
353, 61.128259145548, 68.302769895744, -18.112073296307
354, 60.846612115689, 67.956755385644, -18.939465598438
355, 47.951731843013, 68.618367259266, -25.370171865007
356, 47.669745945335, 69.461357257099, -29.761372861634
357, 53.66720566317, 71.477048450864, -22.014993010747
358, 52.068701859532, 68.462573442691, -27.078553200129
359, 51.8599587844, 68.658153232513, -26.155429007946
360, 60.34633517632, 68.046835404742, -21.66156917042
361, 54.744542837098, 69.037841655418, -21.887651575336
362, 52.178672299161, 72.43834845129, -27.638870221015
363, 63.830399841812, 68.354224462609, -18.404225930733
364, 63.056248285727, 68.546316067167, -18.150331703364
365, 54.738224159192, 70.986809717776, -30.468994584281
366, 50.198263917362, 70.807134437072, -30.337547518104
367, 49.028881855088, 72.565144783919, -25.449540028659
368, 52.509038026354, 70.547534249735, -31.272558339368
369, 56.559588814012, 68.76763473119, -19.93170409948
370, 48.377490478934, 69.78034151523, -21.879566107263
371, 48.80648237936, 70.062947122262, -21.253188510218
372, 49.146353964162, 68.194447095243, -28.677810101207
373, 53.903039071684, 69.638054079863, -19.486618209208
374, 47.890080972916, 70.277818552745, -29.157748599411
375, 49.094726892157, 71.101168024606, -29.260875173596
376, 51.437561735438, 69.260850356628, -21.814021108658
377, 51.110530131119, 68.986161643483, -23.942332973156
378, 50.901013218064, 72.668376644552, -24.147654818158
379, 54.752390935035, 69.922178139924, -32.131991690796
380, 54.054238504679, 70.297549091361, -31.712899124226
381, 56.88090228941, 71.345314522143, -22.958337679302
382, 57.728709770859, 68.174036873233, -25.379042360877
383, 53.646542725887, 71.178890111592, -30.198811275
384, 58.918904448509, 70.498692723083, -19.290999678084
385, 52.028442843662, 68.194625462748, -28.814766435573
386, 60.988169699586, 70.25178511968, -19.848632036173
387, 54.333604987659, 68.220845418315, -28.224870482705
388, 54.334125171384, 68.677808603797, -25.749619226029
389, 53.993943318349, 70.792798719178, -30.913721386023
390, 54.652033271146, 72.218408043849, -24.121093583698
391, 57.520921947068, 70.84688308326, -20.572342333824
392, 49.816675786788, 69.133412534135, -31.987428565244
393, 52.118542226261, 67.75547599551, -30.518729259695
394, 52.560245394655, 71.541355557087, -22.057083289507
395, 58.694901821481, 68.396247399908, -22.836360804884
396, 53.369150816653, 70.570849215357, -31.302833765218
397, 52.4153662377, 70.449059017542, -20.320039062811
398, 52.949965257463, 69.69541722285, -20.062261912736
399, 58.250590558632, 70.116516943786, -18.143302541202
400, 49.522226493313, 68.677457785954, -24.720106522717
401, 60.160957163534, 70.183079330572, -18.597213149544
402, 53.24096856355, 69.389421400781, -32.699411282336
403, 54.712644284106, 72.219181557817, -27.908491512027
404, 47.438541961166, 69.196109628872, -25.761482539404
405, 53.185174087753, 71.267553551782, -21.371712178475
406, 49.516966140029, 70.072988207893, -21.037972306345
407, 47.585192105154, 71.347283087554, -26.254178608775
408, 56.451081413511, 68.881044226893, -22.812011107396
409, 61.597962773715, 67.917044861721, -18.643175401567
410, 49.071926245916, 70.742506711627, -21.396541932971
411, 63.990257874681, 69.027612798516, -18.875465037001
412, 51.416405951371, 72.035786509411, -23.104298971396
413, 50.658998071594, 71.472687652501, -21.917639856338
414, 63.12621814671, 67.854227561142, -18.59249766252
415, 52.506739630036, 67.914210967338, -29.733126466633
416, 51.601749438308, 68.331205009575, -27.904930428679
417, 61.466549927801, 67.796057683124, -19.480919760744
418, 58.905167755255, 68.066373510296, -24.341317710682
419, 57.984599408761, 68.397751316894, -23.884054373842
420, 52.129874581532, 72.056654877614, -28.475670732417
421, 51.460132323169, 72.879038916068, -26.17094077769
422, 53.183459246078, 72.804134387469, -24.798201725717
423, 57.574796142523, 68.33354417486, -24.655353512391
424, 50.422778501964, 67.974012905155, -30.943582466979
425, 48.171893587197, 72.204335287471, -25.309656851288
426, 53.504648852609, 68.850718151115, -24.860907332629
427, 50.666655545254, 69.371726868355, -32.208511648749
428, 63.274005630833, 67.571882166429, -20.628242544157
429, 54.5432709574, 71.828727347939, -28.868843356292
430, 47.466238361427, 71.562540042905, -25.217879396191
431, 58.438197970701, 70.86163120562, -21.6024897483
432, 58.279512668846, 71.194292000596, -23.626604650638
433, 62.123963515661, 67.681088489804, -20.856182421128
434, 55.24421310724, 69.00891871748, -23.442523124578
435, 62.244148885637, 67.671746977567, -19.620800264092
436, 53.706963541573, 69.858729132774, -32.242763595068
437, 47.73446891385, 70.118552052511, -22.049462221144
438, 49.088258935911, 68.824332713444, -31.659482259093
439, 53.62355082029, 68.957031337597, -33.172147625488
440, 54.693252574586, 72.729075957005, -25.673757109237
441, 52.612779037309, 68.786851515102, -25.454752071706
442, 48.535106991716, 70.657959294088, -29.505884038219
443, 60.103485606675, 68.067057599461, -19.220835383687
444, 49.862991313604, 68.219899309089, -28.071097665789
445, 63.037916336556, 67.608588263046, -19.376047300101
446, 50.74854287553, 72.115166585044, -28.13631350856
447, 60.972961498726, 67.909162128471, -20.401753069357
448, 59.570982866317, 68.131164166444, -22.982682467432
449, 49.999057967275, 68.337211791726, -31.79514001832
450, 59.1939051372, 68.415064208385, -18.480786008232
451, 47.38345709372, 71.608205990453, -24.028407892054
452, 53.226477290506, 71.613396007794, -29.391917601479
453, 57.064898587453, 68.257226091941, -25.767200549895
454, 57.03332177623, 68.728610174511, -23.345440863137
455, 49.662444901119, 71.551809105252, -28.829929612182
456, 47.232297344495, 69.949668320932, -25.365625079509
457, 49.061611662506, 71.845503831792, -27.862105745534
458, 50.44876599326, 69.295955860627, -22.017764881132
459, 47.311341590781, 70.667145258934, -25.94830855096
460, 51.773787740996, 71.355976934023, -21.590683758514
461, 48.275651134812, 68.346675670697, -28.795127895544
462, 51.090550190703, 68.929479565638, -32.667234867331
463, 60.393917737609, 70.290109596417, -19.335527768235
464, 51.623888427291, 69.177566811745, -22.501150444836
465, 49.694905534939, 68.886627321159, -23.98137229849
466, 57.984629802425, 68.490705586745, -19.887005149532
467, 60.594535532978, 70.473118783208, -21.445410764412
468, 51.254041958159, 72.404290999306, -27.605759273254
469, 50.544243114194, 70.970878943014, -21.200655098813
470, 56.485444959025, 68.316551733702, -26.067261479714
471, 46.980544374007, 70.141456554065, -23.959842533852
472, 63.889576289654, 69.572982271047, -22.111622813223
473, 57.907194848061, 71.970553525822, -25.848941909022
474, 56.519046543275, 69.875664109513, -31.92314076484
475, 54.238128179066, 67.530620901519, -34.680726231487
476, 61.918287036489, 67.534798487252, -22.471037338456
477, 58.119113603418, 67.762913017662, -27.123863590485
478, 64.050233475399, 67.336852927391, -22.075087878626
479, 60.563898584264, 70.678392898174, -24.020802890514
480, 55.853496864517, 71.61486821296, -28.985032481831
481, 62.146939131833, 70.154032888868, -22.348175450892
482, 56.582615308539, 71.226015253337, -29.516932877274
483, 55.339880621304, 68.614891752073, -33.551628028776
484, 54.493767360788, 68.150573156936, -34.131602295818
485, 55.656443981627, 67.971369395104, -34.287617403829
486, 55.670260343982, 67.70055135998, -29.095631412682
487, 54.203533767349, 66.938238680455, -32.039410041174
488, 56.403278007739, 68.387512410429, -33.681830217611
489, 56.609329768709, 67.779883023539, -34.391591456759
490, 57.522872350135, 67.943074653665, -33.959493854695
491, 56.066873386404, 67.346431791464, -34.95987818914
492, 56.861900335766, 71.573013144511, -28.672409158549
493, 57.62302833425, 71.118557089717, -29.301931111301
494, 54.756879377928, 67.353615114463, -30.346207690383
495, 57.854966896194, 71.450652859971, -28.407708260475
496, 58.577714025075, 70.980395330844, -29.003758332237
497, 58.758011324105, 71.285697678538, -28.087560015065
498, 59.427800857103, 70.815189584224, -28.652067633414
499, 59.238126425001, 70.512298402246, -29.490292834744
500, 60.090151438326, 70.312370659844, -29.127707201921
501, 59.885529989379, 70.009470997681, -29.978874166066
502, 60.761623705786, 69.76772280986, -29.602074463911
503, 60.469318890173, 69.490011432135, -30.548771932421
504, 61.44278029269, 69.193088516523, -30.145554808086
505, 61.113214811893, 68.965465841212, -31.065639326369
506, 61.604701410649, 69.554339355222, -29.0979085276
507, 62.305742826932, 68.967486698544, -29.632824528514
508, 62.522454274386, 69.257929336347, -28.623937389969
509, 63.289280033212, 68.6572534302, -29.124197280213
510, 63.542207212107, 68.924895979347, -28.002024233845
511, 64.257107798917, 68.254515337481, -28.626558745196
512, 63.971351171767, 68.06984412702, -29.574047050309
513, 64.418386055865, 68.505496160567, -27.605287212683
514, 65.106602290652, 67.775610732224, -28.070110398905
515, 65.135044683877, 68.028734522965, -27.09003880974
516, 65.512528728169, 67.072273011136, -27.338098595849
517, 64.546838966892, 68.719854567891, -26.677992282891
518, 65.473255384545, 67.482876523431, -26.185872776552
519, 65.046499809039, 66.473176561552, -26.580820849325
520, 65.091964835629, 66.220124017603, -27.761845418191
521, 64.16135053766, 66.176760436774, -27.091620327537
522, 64.133621834965, 65.928053777066, -28.307243454924
523, 63.169790651735, 66.199467662737, -27.492204388904
524, 62.985360765719, 65.993776578683, -28.660973425627
525, 60.879904457577, 67.655324221646, -23.488169635049
526, 62.160126965264, 66.363352577298, -27.823228624873
527, 61.946867336617, 66.158156219281, -28.852538213738
528, 61.856169606096, 69.790637809893, -28.133211366217
529, 64.206510657951, 66.384215310116, -26.001858955759
530, 59.525971440103, 69.785017704527, -30.770893324472
531, 61.324725128595, 66.477813970113, -28.271874616923
532, 61.151144245924, 66.256452882324, -29.203539068394
533, 61.679904500595, 66.024234538624, -29.629606284802
534, 60.995605570065, 66.020883893547, -30.086713805601
535, 60.124602825859, 67.551596952886, -25.228759851375
536, 60.164232094668, 66.398488105536, -29.517578359006
537, 60.038690497695, 66.072185533421, -30.53082306919
538, 60.904971256241, 65.695832591592, -30.932586692676
539, 60.021643060285, 65.715415721079, -31.354862147328
540, 60.771876721408, 65.350300723587, -31.713975491598
541, 59.923575631761, 65.396011552189, -32.103802902737
542, 59.192816933799, 65.773062522519, -31.705533632502
543, 59.073939511115, 65.473091303418, -32.438278519601
544, 59.890624463591, 65.04220874163, -32.940440155676
545, 58.981862358907, 65.123937689482, -33.306203278394
546, 58.106238082668, 65.627121409247, -32.674382285129
547, 61.662327724168, 65.336670150392, -31.294824917231
548, 63.80444447708, 65.825167902178, -29.087222725433
549, 57.73639327376, 66.101759093234, -31.81004869028
550, 59.731874544541, 64.730851379557, -33.769475203878
551, 58.784612013749, 64.81658704135, -34.127071661306
552, 60.664398832692, 64.674149696626, -33.33497341731
553, 60.469976319264, 64.392122471316, -34.156711595776
554, 61.39416672857, 64.346113065266, -33.688747747894
555, 61.225511475553, 64.1090401534, -34.636077483639
556, 61.926734683784, 64.039028913539, -34.246921904462
557, 62.331524142112, 64.21349478993, -33.40083145963
558, 62.743182796141, 63.864658973061, -34.313620993949
559, 63.656754149163, 63.924910362073, -33.382450937903
560, 60.408563774873, 64.174553889978, -35.115623907664
561, 61.358395667994, 64.259492554872, -35.56003929363
562, 60.294063664079, 64.509356879735, -35.995379159779
563, 61.088636113308, 65.148382760795, -35.76314648377
564, 59.93244650909, 65.371814957077, -36.059645405926
565, 60.467086562505, 65.936978750575, -35.362070098892
566, 59.450772946679, 66.082292843437, -35.65820895171
567, 58.866307712316, 65.659250390518, -36.323287004479
568, 59.801788096722, 66.624967734099, -34.784859235829
569, 60.900869790699, 66.434006829451, -34.524688344043
570, 60.326276537689, 67.090339839368, -33.993033005532
571, 61.254614453504, 67.019398524314, -33.677842682144
572, 59.594364144811, 71.06016599779, -27.780147357902
573, 62.296708890179, 66.60962702144, -26.550132290926
574, 61.827852610816, 66.349606730404, -34.166535358316
575, 62.189812083021, 66.906531847156, -33.33414638022
576, 56.699976169803, 72.347168683862, -26.788391838106
577, 62.684458479698, 66.252412065108, -33.784813112464
578, 63.204483650192, 66.633914682294, -33.015608421694
579, 58.458453544683, 66.291855060787, -35.839813351058
580, 57.787842995037, 65.982519756931, -36.431484326416
581, 62.494577023937, 67.411932836892, -32.551991387232
582, 63.422113615259, 67.282524481441, -32.034780572556
583, 63.955761593573, 66.636392116327, -32.430234680505
584, 60.673663060804, 67.582416056066, -33.288058804831
585, 63.999893846987, 66.072539844117, -33.038442198577
586, 64.668052305221, 66.051885458115, -32.416225120921
587, 59.20369933912, 66.429297706927, -30.099352827246
588, 59.182887328659, 66.776233026082, -29.184864305443
589, 58.303019242341, 66.812257954981, -29.680198311349
590, 64.460735374623, 66.86648069502, -31.607277212907
591, 65.249075038218, 66.076211673015, -31.561172126502
592, 65.11789944181, 66.75400489406, -30.61941186101
593, 62.404667000525, 65.716799214201, -34.629477777193
594, 65.254565941378, 65.376631790855, -32.35367661995
595, 65.187123295357, 65.008536369938, -31.362131290502
596, 53.766142561692, 66.576270522204, -33.817082134708
597, 56.960494609264, 67.91765033, -27.697551989579
598, 61.173724357713, 70.463800105452, -23.478142944172
599, 61.505029234882, 70.443157104393, -24.302883463255
600, 60.922404195848, 70.708134116346, -24.985135827914
601, 58.970034373385, 71.368323610302, -25.06747882187
602, 61.771640755936, 70.429878824628, -25.249771028545
603, 62.430392608778, 70.158204013328, -24.544857280767
604, 62.658697305565, 70.057491814573, -25.5204828628
605, 63.292231088781, 69.835622684271, -24.797490444479
606, 61.157392909156, 70.687692126787, -25.905456990658
607, 59.666689860393, 67.7117541612, -33.525023369702
608, 60.171400527141, 68.175971755313, -32.816193678624
609, 57.208824380104, 70.770410771351, -30.17562869102
610, 62.67072286256, 67.955503596258, -31.619080545605
611, 58.121422943187, 65.062454511247, -36.798417356975
612, 56.868820414319, 65.068983562238, -37.097171730962
613, 57.448827528686, 64.577502630165, -36.512160077076
614, 55.956809525459, 64.788527920166, -36.654106311714
615, 58.342168221565, 64.43652445827, -36.122844635836
616, 57.448467413758, 64.624549909272, -35.65924478994
617, 56.659974822732, 66.117398728798, -36.660301249699
618, 59.40816711223, 67.604985234277, -26.093766422515
619, 60.469916851427, 67.279351224536, -26.120635085712
620, 59.954855272268, 67.275074041721, -26.945769570413
621, 61.203204413503, 67.209203357633, -25.277959627861
622, 58.901311025109, 71.535180699241, -27.153306728857
623, 57.088270768092, 68.894569937701, -32.972325537487
624, 58.206882778927, 68.52539025389, -33.104462977116
625, 57.90640202744, 69.222302352157, -32.412132169622
626, 63.051846744376, 69.92155098182, -23.808783395434
627, 63.951124146185, 69.56419865111, -24.083626505429
628, 65.334147073518, 68.354005255343, -21.722083900901
629, 58.313484907371, 67.173456983306, -28.805096907734
630, 57.442146379936, 67.219313215707, -29.272651750943
631, 57.428893765275, 66.827282811004, -30.18154859166
632, 64.138282649611, 69.400257217341, -25.151523228446
633, 64.741264731824, 69.094054741783, -24.258885771423
634, 64.616931255432, 69.211697797464, -23.443706331191
635, 65.319277698991, 68.556411187197, -23.717348780644
636, 65.332099481217, 68.396009632773, -24.629113579139
637, 65.420135850271, 67.622643214161, -24.045098542168
638, 61.544670494222, 64.622919217343, -32.897845551573
639, 62.439201049535, 64.638717034897, -32.305811987966
640, 59.849031025404, 70.993334211986, -24.671712257085
641, 59.736045007617, 71.287007783049, -25.780900765108
642, 65.317803809554, 64.532134104823, -32.182882841945
643, 64.416343884917, 64.56696773356, -31.745519521848
644, 64.298117819354, 65.10946363705, -30.960158933039
645, 65.139725291396, 64.881133245811, -33.057575573827
646, 63.286721801535, 65.650028236523, -34.142096298158
647, 61.757358686378, 67.973355194859, -32.280479476233
648, 58.801982706217, 69.001859191677, -32.38674286154
649, 58.287681652879, 69.723352275713, -31.62886611894
650, 63.597455476328, 64.931082989604, -31.289952447991
651, 63.441149597937, 65.384300513151, -30.594946016336
652, 61.434945404056, 66.726696032956, -27.242377057842
653, 62.41658971027, 65.897582256106, -29.591115328792
654, 63.715248843774, 67.585283888599, -31.193587699559
655, 63.095533536591, 68.103745822485, -30.786652369841
656, 64.919312311699, 67.562103031853, -29.064505000067
657, 63.339518621555, 67.355713909665, -22.000442536535
658, 63.808753838545, 67.163220609815, -22.803319122179
659, 64.66095019325, 67.352037477898, -22.518350786703
660, 56.559763555385, 67.234236148779, -29.722773054528
661, 56.420537483493, 66.849112123053, -30.733646668845
662, 57.213498855004, 67.234715603248, -34.929770704699
663, 58.144856125396, 67.366997153504, -34.482430566033
664, 57.440823557371, 66.576992811056, -35.801390011862
665, 59.083211738785, 67.152599952734, -28.266914656107
666, 65.519842955294, 66.876182514284, -28.526429683209
667, 65.362731252147, 66.65564024988, -29.623633341619
668, 55.988554367928, 69.003147476532, -33.029499155023
669, 58.367711982196, 70.576195268017, -29.9813557299
670, 62.175861509594, 64.0063702949, -35.023114025216
671, 58.559141233763, 64.501723751165, -35.124235517797
672, 57.8331273335, 64.891558458317, -34.541564708385
673, 56.942278930321, 65.030972646553, -34.808193216264
674, 57.216414812167, 65.333813938147, -33.90581124158
675, 56.179984511183, 65.504608427113, -34.252968395685
676, 56.5534669208, 65.796133095192, -33.286366714342
677, 55.561197001701, 66.048729879289, -33.405966586522
678, 55.145014589671, 65.84759926438, -34.357219688344
679, 55.950666089428, 66.30910956195, -32.416076949249
680, 55.522356309132, 65.420987980489, -35.08090914549
681, 54.767862727019, 65.745095659682, -35.237164048589
682, 55.039425632152, 65.374249515935, -35.849150487161
683, 54.115676354601, 66.273912655404, -36.034304551536
684, 54.219243328299, 65.967798901776, -36.753320674162
685, 55.681968981087, 65.683893362004, -37.244347541306
686, 55.850576012348, 66.464134905958, -36.348354673148
687, 58.315519798267, 66.465747005502, -30.569060760238
688, 60.174039173288, 69.211299246316, -31.404475070344
689, 59.907646554812, 66.790588890653, -28.57926143731
690, 63.178818087848, 64.154261866309, -35.045442713337
691, 63.428591542567, 64.509205988954, -32.093733821456
692, 61.968727000284, 70.291625154483, -26.189472808607
693, 62.873034978741, 69.784729444649, -26.443155767889
694, 61.210988620946, 70.531153477612, -26.843114302458
695, 65.423033092041, 67.518414056089, -25.025436427612
696, 64.869653095822, 66.959014662259, -24.468543484316
697, 56.063314675316, 71.949196909377, -28.126649043286
698, 60.497345798736, 70.960361164987, -26.43264472084
699, 62.771193150511, 67.264198686337, -22.910879207313
700, 63.481469606886, 66.990942894196, -23.705304199444
701, 62.500660142158, 67.111788522858, -23.987603494189
702, 63.21735115847, 66.794952983114, -24.683036238106
703, 65.15476025395, 66.009933554461, -28.769372388526
704, 65.140523434531, 65.890421387253, -29.880022349515
705, 64.743338434126, 69.104210492605, -21.954032700038
706, 62.206826269647, 68.594812810988, -30.702693874454
707, 56.663163554764, 70.438846791991, -31.001200174556
708, 57.796054698643, 70.269636950681, -30.887992046135
709, 62.134729020573, 67.012312876432, -24.875739800933
710, 62.726071709485, 66.691230152678, -25.592048743618
711, 62.592899125996, 67.463949430029, -21.995492599574
712, 62.66916829138, 69.541386136347, -27.600546741707
713, 63.391485058733, 69.330786661583, -27.058140168704
714, 62.663890961245, 65.246752583365, -31.045364031389
715, 63.856869613414, 63.702359486548, -34.28885182892
716, 65.376555885674, 64.125739977256, -33.007027336988
717, 65.166652265611, 64.426732208673, -33.659699937686
718, 65.011659626609, 63.728346917607, -33.720587957028
719, 64.643327814707, 64.961885753269, -33.702645752601
720, 63.94490188254, 64.401161985824, -34.775471228861
721, 56.486392002464, 64.851777989557, -35.7493519265
722, 60.908194156351, 70.152898032672, -28.513708905462
723, 59.213595903336, 64.761563473522, -36.372519402912
724, 54.614963365793, 66.330609183632, -33.519257591479
725, 53.917180181205, 66.735239344997, -32.918846464911
726, 55.050975656294, 67.411375328835, -34.896246180646
727, 65.247976783441, 68.322293549186, -25.54930675257
728, 61.519166229184, 65.750217168729, -35.060705705355
729, 61.250756199633, 67.659964936917, -22.838963017753
730, 56.997244340518, 66.046080862739, -32.377565086635
731, 60.571765996276, 66.843051790952, -27.813089143068
732, 55.149333317356, 65.06755381427, -37.074291819825
733, 56.74360932641, 67.601917663342, -28.776010316162
734, 55.610058844517, 67.299374734671, -30.049984534405
735, 61.84397529527, 65.729908102726, -30.394289195119
736, 53.597887396882, 67.863402238461, -34.336263274016
737, 53.621313589592, 67.003571213774, -34.6020723858
738, 63.880640201477, 69.277097537266, -26.310114598232
739, 54.938803509857, 66.493871417672, -32.692588638293
740, 55.14200662536, 66.767197615738, -31.810352601169
741, 60.836523400748, 68.553509598256, -32.011487495848
742, 65.493213615421, 65.862390559761, -30.738787362828
743, 63.336500281103, 66.392956842441, -26.365143579767
744, 58.219421856189, 66.810097558418, -35.188388518199
745, 58.896263192647, 67.063341929425, -34.594950731706
746, 59.549192651811, 64.439395983576, -34.629149005941
747, 62.087931238908, 70.213217370539, -23.453957255502
748, 56.426973497298, 66.49161086828, -31.668703504249
749, 61.371501781704, 66.958395695525, -26.269775271818
750, 58.856026260677, 71.680737902003, -26.066611105655
751, 64.996642849036, 66.757906511245, -25.547809528464
752, 60.496201025309, 70.723609694241, -27.501529187532
753, 59.193803602404, 69.491657631634, -31.565917010213
754, 61.599916410148, 67.476897486928, -32.984044499257
755, 63.678814546639, 69.674861915565, -23.056547983262
756, 64.687936371657, 64.22755396557, -32.386617668453
757, 57.517130044642, 67.561110150062, -28.37200213581
758, 55.459231490614, 67.028533079703, -30.849954530369
759, 60.564819583497, 67.589172711139, -24.33282904734
760, 64.672163498822, 67.398329182411, -30.009341124026
761, 63.102814748097, 65.112360036288, -34.85410841096
762, 61.96248915238, 70.070451338632, -27.102397455328
763, 59.21767188069, 68.318664795574, -33.00676976035
764, 65.010791373334, 67.861538076621, -21.385250463099
765, 55.057675109769, 66.257744026428, -36.690428254262
766, 62.23176390225, 64.912149220731, -35.426553105456
767, 64.163389564575, 65.665039495319, -29.929102236694
768, 54.400373272344, 67.163605310804, -31.165220998457
769, 58.556235758964, 67.774836252077, -26.473024274897
770, 58.64555853489, 70.116480173301, -30.724272032844
771, 57.460974397292, 69.856148334198, -31.712489611018
772, 60.127265874377, 70.621686932519, -28.334345976019
773, 57.28964590741, 66.547640932715, -30.995083629355
774, 54.237750772685, 66.2764510937, -34.421852435941
775, 64.153078637944, 66.645064945587, -25.041743107983
776, 59.018127724344, 67.480258908391, -27.266063407931
777, 54.771339453621, 65.609197669272, -37.233582153626
778, 58.095973164882, 71.715523383777, -27.486563624535
779, 57.047267593829, 71.924278998252, -27.708585077048
780, 57.580504722658, 72.108249665212, -26.804836963837
781, 61.528350899235, 67.318754462333, -24.239171546661
782, 64.521006357343, 67.099328965664, -23.477195904781
783, 65.228694117286, 68.664793590638, -22.662513013092
784, 56.184182132285, 67.914121315657, -28.292270000789
785, 56.512144023979, 66.795599036476, -35.691938485541
786, 59.697185417277, 68.846415316388, -32.213991225173
787, 63.011741411029, 69.892800787731, -22.2461926108
788, 58.260182470262, 71.64774269157, -25.209712640735
789, 58.300795340023, 67.508980803703, -27.918569108984
790, 64.855409539758, 68.921844845807, -25.099496356648
791, 58.078734986971, 65.235210522385, -33.592814602231
792, 56.348025083621, 70.882111844331, -30.278146319985
793, 64.632846652838, 64.22559268976, -34.352040696338
794, 64.651570841891, 65.516946661303, -33.014969994607
795, 57.084033074562, 72.28422049954, -26.211465866222
796, 58.325187182195, 71.87296627227, -26.662985414276
797, 59.369928449239, 64.331707180058, -35.583262761814
798, 61.777431666092, 67.416039753335, -23.41431934179
799, 59.161627474366, 66.131948357731, -30.900373871168
800, 58.766453012502, 67.718586379827, -33.844851532622
801, 60.757429895456, 64.985635646575, -32.53288468032
802, 57.345238244925, 65.641912930476, -33.115223896856
803, 56.519088688952, 69.360509304056, -32.542069200906
804, 61.305187669513, 70.249170811956, -27.645707502313
805, 60.99407195277, 68.0088269014, -32.648158173085
806, 59.718793022073, 71.282035032633, -26.804320877105
807, 63.020102189288, 64.276197049815, -32.814810628143
808, 63.522931785766, 66.551528006718, -25.525315033178
809, 55.764671134852, 65.063576199873, -35.842992585025
810, 61.42234812622, 70.353955682531, -22.705190191486
811, 63.255501360895, 65.772903897976, -29.66604759645
812, 64.671986446089, 63.947197519625, -32.980192111979
813, 63.959938432138, 64.147074207536, -32.675740186312
814, 64.291243038667, 63.783536837446, -33.493981943408
815, 64.404174242246, 67.303312401794, -30.810406461484
816, 64.615856412016, 68.930804241169, -25.82685135585
817, 65.333616513336, 67.737372521852, -23.087749798948
818, 65.209372627184, 67.789060753155, -22.15480058164
819, 55.328450062988, 67.036662047694, -35.335751569187
820, 55.112430471634, 66.718396908599, -35.870605355519
821, 54.558832994729, 66.455945553208, -36.136790785172
822, 62.272766862273, 64.981364955431, -31.685087091323
823, 58.960093146154, 66.584445263709, -35.217351120234
824, 56.192483464024, 72.232680268013, -27.392732951754
825, 59.737208466505, 67.117712292574, -27.771479835288
826, 59.519085635346, 67.23986368039, -34.131197017682
827, 63.388136848936, 69.708981557412, -25.648426889425
828, 56.215997486905, 65.216715858033, -34.934689646197
829, 61.618421030922, 64.943980035044, -32.104796825993
830, 65.092962772782, 68.346392982261, -26.310021169315
831, 64.012162924558, 65.097917226657, -34.213218610502
832, 54.433125974229, 66.822840424541, -35.420915669943
833, 54.704644990539, 65.336407509203, -36.571677673404
834, 54.422456204369, 65.717052711629, -36.00190514241
835, 64.506256324827, 67.557802896111, -21.581919427306
836, 54.103519716498, 66.251779808743, -35.309138512872
837, 64.443762441312, 69.3265027021, -22.628148035493
838, 59.161253902712, 70.198844689895, -30.200293453752
839, 63.02479400028, 68.447108700557, -29.979029317731
840, 57.658670227325, 67.74650335937, -27.690419861172
841, 64.488191088597, 65.815009426696, -29.175353945124
842, 61.73872768086, 68.459302140168, -31.520847380155
843, 64.088191989782, 66.822651935078, -24.234961318071
844, 62.708003781456, 65.643736413705, -30.270542212474
845, 65.48876261256, 66.292858073567, -30.223525280594
846, 60.639084777692, 66.54461194825, -28.690306794636
847, 58.37866878036, 66.148685161254, -31.325776103793
848, 57.146178383546, 69.428287000559, -32.342819106612
849, 64.819974575406, 65.540426519336, -30.443036667131
850, 57.409920730449, 67.94865108569, -27.068532505073
851, 64.016382530205, 65.582160387969, -33.594950847499
852, 63.841385096751, 67.810851170202, -30.441401609785
853, 62.954673353062, 64.006593136241, -33.570766114675
854, 56.245668182482, 68.103905215718, -27.506706326978
855, 60.774215796544, 67.022131427524, -26.889226959128
856, 56.768532331488, 64.642772180219, -36.391032151471
857, 57.114601820867, 66.30471555915, -31.704394194192
858, 63.399169718065, 66.050630173826, -33.542999199716
859, 62.927038510513, 64.850834908048, -31.638029232988
860, 58.518176176381, 65.811857508009, -32.008689490593
861, 54.929986931548, 67.575264896818, -29.714937102769
862, 55.330006476738, 65.070325914818, -36.37029465663
863, 64.464950069768, 63.683148208112, -34.072331965754
864, 62.763977396572, 69.994679489125, -23.027680158897
865, 61.944662930219, 66.88701545006, -25.72007568722
866, 64.027043922765, 68.951026194289, -27.066937246537
867, 55.807843090278, 66.735612078162, -31.453292625551
868, 55.846590168879, 66.948750634342, -35.500372788094
869, 60.457835722832, 70.967804818791, -25.586919922164
870, 50.863501744197, 70.860848590665, -25.022879416566
871, 53.999604274518, 70.764396693728, -26.066217814855
872, 56.640327589194, 70.206627933191, -26.147665768186
873, 51.737581638211, 70.526142777788, -26.98220595562
874, 49.516098216573, 70.259757897279, -26.684931056566
875, 58.262000285689, 69.45361541717, -27.646148391626
876, 49.000104998951, 70.581135295448, -24.841724609168
877, 53.492571705727, 70.000558661077, -27.760543578992
878, 58.045666326417, 70.049170592543, -26.030054619554
879, 55.453721879003, 69.977948500271, -27.994099623728
880, 54.50456595013, 70.696377479103, -24.687399095982
881, 52.287091819012, 70.718872982054, -24.923327418104
882, 58.582519481517, 68.759669597638, -29.091282022446
883, 56.536044443674, 69.443703398435, -29.124590412028
884, 49.773989718152, 70.216760831532, -28.513118874999
885, 51.987414810078, 69.828399131407, -28.734842075596
886, 53.654817264184, 69.771826438289, -30.017124786526
887, 59.762489600932, 69.192333745534, -27.539635359759
888, 59.987418960779, 69.280698423291, -25.892716145548
889, 54.919954245473, 69.181289224442, -30.744553563735
890, 57.676560870789, 68.667798311909, -30.611663120755
891, 51.197351327334, 70.421814021434, -23.423619439909
892, 62.625769541056, 68.814247046974, -25.448767457479
893, 61.273997716832, 68.835306925427, -26.791222154352
894, 59.27420169647, 68.222663336851, -30.802479680465
895, 60.576831183919, 68.408073040336, -30.111384008039
896, 60.96493834658, 69.323298549326, -25.013796085881
897, 56.281951445865, 70.19953264972, -24.617980010574
898, 56.569274611964, 68.123411655947, -31.758392851042
899, 51.954596945895, 71.624906116433, -25.883524646131
900, 52.120062566087, 69.397932219515, -30.42309458707
901, 59.05281965036, 69.469605399772, -24.440274523956
902, 60.989195816328, 67.453467316898, -30.88085973188
903, 62.098236126967, 67.819509126879, -29.847107140588
904, 61.399532711287, 68.438417460271, -28.324138579771
905, 54.917097584795, 70.220801305948, -29.517614397138
906, 60.242693015016, 69.105721022078, -23.651088191651
907, 56.786705981429, 70.252600989523, -27.839918942665
908, 53.35827907934, 70.401855286973, -23.2247769665
909, 63.566772950211, 68.135416790268, -26.19250954141
910, 62.700300658329, 68.175379100797, -27.08266112399
911, 60.762065096694, 66.94231878229, -32.117825015887
912, 59.177764320365, 67.210080162665, -31.908762592744
913, 55.18152232247, 71.431790689304, -26.942559311263
914, 57.59058087069, 70.081017678482, -24.33548792926
915, 48.412784200508, 69.37072860855, -26.245572285327
916, 62.415619656751, 68.801250083829, -24.063346529511
917, 49.396083212593, 70.569576289796, -23.276088894579
918, 57.922370282827, 68.369399218021, -31.840088781376
919, 52.845862504443, 70.070178339511, -26.091484008113
920, 51.420210222694, 70.285693597649, -22.046607796454
921, 55.105661739286, 68.359683083913, -32.084237725059
922, 57.069642234064, 67.381157109535, -32.753105542803
923, 53.924185231634, 69.041780793049, -31.612697206271
924, 54.632507252694, 69.687540812208, -27.066518174284
925, 55.26735258303, 70.022797931575, -25.726940996139
926, 63.858271131244, 68.247606592804, -24.325911876716
927, 56.58790149236, 70.099536855783, -23.387077798209
928, 50.277911323351, 69.212297205077, -30.048766463188
929, 52.743004489835, 71.427374571182, -27.021784427928
930, 57.547288122406, 68.451663911015, -28.591611540424
931, 48.518586345839, 69.438470018151, -27.659715001431
932, 48.055928074306, 70.687961481709, -23.968278731087
933, 55.310552232884, 70.258572763758, -23.325045361415
934, 62.779481071158, 68.621967537185, -22.774964150238
935, 58.314849031953, 69.901205320944, -23.432463308555
936, 62.807011212497, 66.684558822252, -30.79267718761
937, 61.526253282847, 68.825350721911, -23.035188325399
938, 61.953970404003, 66.104246106781, -32.240098684892
939, 48.800469838996, 69.276686343671, -29.157810082651
940, 50.506349373168, 71.069562594769, -27.607302743987
941, 60.502084520524, 69.259896536564, -22.491499205011
942, 58.275627961941, 67.013042821156, -32.588124649201
943, 58.666965967242, 69.768728719805, -22.082076391971
944, 58.797660927691, 68.89355226783, -26.600025412889
945, 59.679994488086, 66.48648111401, -32.544914501761
946, 57.677675194004, 71.082770653387, -26.552404717417
947, 56.059719275803, 68.284474964801, -30.358820633435
948, 54.144997611341, 70.143066582439, -22.469036724695
949, 55.128896503748, 71.633933063269, -25.825651288541
950, 52.546901053084, 69.121343600447, -31.529388349394
951, 49.600947045766, 71.507163716142, -25.57429675173
952, 53.157269433037, 69.166527255629, -28.80245248332
953, 62.695932671015, 67.658947929093, -28.484497502918
954, 63.060114115278, 67.099817965158, -29.627770886247
955, 57.116023262501, 69.260391677756, -25.183352168349
956, 57.177649280793, 69.192616027184, -26.546320180047
957, 51.134130661372, 69.57758224164, -27.667419865949
958, 49.848965204789, 69.588194554576, -25.494961121108
959, 60.42221533448, 69.270125742724, -19.950058049309
960, 50.172842671823, 71.594230334042, -24.30525371921
961, 50.685043544262, 71.046187470906, -26.313170791393
962, 51.212612591412, 69.121777691362, -31.183673019871
963, 61.682770650019, 69.005272201466, -21.78870586156
964, 53.944372004568, 68.146193123382, -32.494245850411
965, 52.478645756867, 69.453683809681, -27.484503424037
966, 50.711005588608, 69.57449965454, -26.51644848522
967, 52.606892698654, 71.033624876487, -28.256347712389
968, 55.992447161448, 69.128297670987, -27.143794500364
969, 53.248511688173, 71.845165379584, -25.696512710293
970, 60.773909867663, 69.073421295666, -21.112548605526
971, 51.523603523986, 69.792648079584, -25.594787014876
972, 58.9341530696, 70.614122827767, -26.836286921325
973, 57.437062495904, 69.844007207294, -22.411946208458
974, 63.889403635034, 67.484600791798, -27.316559738141
975, 54.578869142974, 71.045344649259, -28.210969119955
976, 52.979016242632, 70.336847829069, -21.803249027016
977, 49.967153190815, 69.073040129978, -31.055562780966
978, 51.314810644587, 71.629851667388, -24.184881299418
979, 50.231437089673, 69.919148455034, -24.177351402389
980, 55.889486908978, 67.520041163837, -32.660451828019
981, 52.30962931736, 70.285399515667, -22.949074159394
982, 61.015754436458, 69.80503672867, -25.979218143077
983, 61.900033372441, 68.794391793061, -20.286116938895
984, 64.005016418473, 68.36261962567, -22.332899043219
985, 59.053960312341, 69.959584719822, -28.494159272458
986, 60.198497760143, 68.055940988345, -28.32944769372
987, 60.008508545272, 69.32176793346, -28.863655161452
988, 59.025886830415, 68.407835848644, -27.859919305899
989, 57.054568195018, 70.998305814982, -25.379258315464
990, 60.657992798492, 66.012103418858, -33.205118605818
991, 57.914165873259, 66.568109030998, -33.728054643894
992, 49.377718961222, 70.872422311634, -27.759047790736
993, 54.363335355794, 69.261027180738, -28.386905584264
994, 63.413294434597, 65.728727217505, -31.87766596179
995, 59.140631366036, 69.390218243765, -19.789497095816
996, 55.948263592567, 69.890124621657, -30.289776396241
997, 53.976745906503, 70.757506342183, -29.074498815571
998, 53.60634646712, 69.912703087329, -24.981637278105
999, 63.803031570249, 66.331899211496, -30.725336824118
1000, 57.555284781986, 69.756724263613, -29.892390630936
1001, 63.090934233315, 68.587307239938, -20.633571114267
1002, 55.915580483074, 68.877273481941, -28.157723151215
1003, 54.331479182302, 68.64048550884, -29.616139588574
1004, 50.827384808912, 70.575457058467, -28.97493416488
1005, 56.461263578345, 70.104885732765, -21.993246448825
1006, 57.487064648908, 69.797088540971, -21.214700207564
1007, 58.225349766602, 69.577513968081, -20.417566825904
1008, 55.800753865164, 70.483975796075, -29.132920820974
1009, 59.575099564178, 69.06232488812, -30.006862030643
1010, 54.11634117722, 70.024113841791, -21.336935745057
1011, 51.727341892812, 69.956570161303, -24.266774190835
1012, 56.694202721906, 66.771184926645, -33.684177868202
1013, 52.712903345213, 70.401685451172, -29.688120420889
1014, 60.225462748645, 69.974696662907, -24.793941067644
1015, 56.737651295461, 69.281336783347, -31.061117155465
1016, 56.366829604101, 71.258702824106, -27.238992629159
1017, 58.791611292588, 65.805681549743, -34.610634850777
1018, 57.813687747481, 70.011023581936, -28.745976078783
1019, 53.316673269423, 71.281289845261, -24.512520104752
1020, 63.453097794866, 65.139915517576, -32.979027777997
1021, 58.422327675566, 67.767941915126, -29.838850956984
1022, 50.222848801573, 70.307424683846, -22.274532246543
1023, 48.385446299955, 70.827379679395, -26.018235514359
1024, 59.246368109002, 69.343343317298, -20.76221790288
1025, 53.963155980625, 71.606530310533, -27.096453720984
1026, 60.971545014014, 69.148797371168, -27.790957570464
1027, 59.18488245559, 70.223812070184, -25.593019359434
1028, 55.388568192485, 68.777327851197, -29.240110249912
1029, 58.171992151834, 69.037051278317, -25.437207275059
1030, 56.910506143282, 68.902873546012, -27.627302697328
1031, 52.887358447435, 68.330589222824, -32.439780449107
1032, 53.554326824937, 69.366358505476, -26.747804494503
1033, 57.253854082375, 69.569037035995, -20.023608043587
1034, 52.256482089104, 71.269204143173, -23.65096396041
1035, 59.806017787202, 68.688170454651, -24.720463046369
1036, 63.035752738365, 68.593585017462, -19.406132196675
1037, 61.518129111985, 68.883843995641, -19.132473020907
1038, 54.345880737168, 72.057703608718, -26.074453652093
1039, 60.450950839906, 68.366379208698, -25.584700518885
1040, 60.647894364987, 69.789595092624, -27.056698880429
1041, 51.467318085544, 71.873581601477, -26.770129365928
1042, 56.107312783882, 71.541233034872, -26.045473012658
1043, 63.933672252268, 68.106356952433, -23.32544458136
1044, 49.99203368779, 69.257246576458, -27.482096899909
1045, 50.776082327237, 72.066078306537, -25.429924331995
1046, 64.241018536385, 66.875420811663, -28.538174945612
1047, 62.043743165575, 65.623733523231, -33.239859353963
1048, 54.420832577962, 70.224268992685, -30.445316884203
1049, 59.450581878962, 69.496235068591, -22.817342230899
1050, 52.198827463101, 72.017802565135, -24.866427231304
1051, 60.004475702937, 67.223590021619, -30.081735210762
1052, 55.802178607537, 69.087683624458, -31.540540635686
1053, 56.161948112087, 69.920117861614, -20.586117799227
1054, 51.285708680132, 70.198498230154, -30.058075141264
1055, 61.911750099888, 67.092980663542, -31.299009422728
1056, 51.522560850266, 71.327089796723, -28.023179853375
1057, 58.062690838002, 70.623885182524, -27.612913684177
1058, 48.456169960715, 70.621867448244, -27.16074241834
1059, 58.622701428756, 69.189271181077, -30.595011131646
1060, 60.143073263769, 68.029291828927, -31.429991714123
1061, 60.023885245224, 65.469650127055, -34.2672720197
1062, 60.052522914361, 68.311600555652, -26.877518536528
1063, 60.073341780574, 69.171694341638, -18.903903687676
1064, 53.295294913077, 69.853332920909, -31.041671840732
1065, 56.770452043935, 68.334023480941, -29.467496903659
1066, 59.409075677484, 67.891573963232, -29.125859618558
1067, 54.175067682964, 70.162065234319, -23.721599218372
1068, 63.017535066526, 68.552981938296, -21.62403461422
1069, 64.464642802976, 67.801684177556, -24.946671216865
1070, 54.815112516498, 67.551139060121, -33.181679948896
1071, 52.930839170255, 69.876566791322, -24.263408805133
1072, 54.141203815615, 69.541210199085, -25.900885111989
1073, 61.035763556539, 67.350443089609, -29.051088142829
1074, 61.353546939448, 68.544539206638, -29.278555420466
1075, 60.924320739701, 68.427120335166, -23.992972784096
1076, 48.92957765441, 69.768155540092, -24.011618104189
1077, 49.52801356663, 71.474627434418, -26.835163823481
1078, 57.246000505979, 67.638396200651, -30.586009772682
1079, 58.747934747794, 69.773536623728, -29.552862995332
1080, 61.965227924959, 69.44977984338, -25.274488032036
1081, 49.069825160482, 69.187538401767, -30.41268353051
1082, 55.104777736907, 69.64453185261, -24.574593415428
1083, 56.231236900534, 69.184327417106, -25.774861980499
1084, 48.747124078387, 71.612377610953, -24.910311903708
1085, 48.243971998858, 70.364624165388, -22.841519707433
1086, 54.365193073028, 68.133932555693, -30.736228973835
1087, 60.865553036183, 67.825024644467, -27.254265456317
1088, 53.484491898475, 71.370556928672, -28.084053186899
1089, 63.592632131914, 68.787014671815, -25.480037715649
1090, 62.650568829424, 67.578274232404, -26.105730356875
1091, 61.78544007905, 68.098480706216, -24.987798525362
1092, 51.258540282419, 69.008148571529, -29.433298196525
1093, 58.406059949618, 70.607435582107, -24.8989635444
1094, 55.477140013189, 71.216731996665, -24.704653871877
1095, 61.509002693294, 68.161883112792, -26.068294078932
1096, 59.556992339896, 70.205918677035, -27.623082068503
1097, 57.779234684214, 68.550039910087, -27.342779285345
1098, 52.600782373943, 69.596513935205, -25.025082681793
1099, 61.381822904857, 69.487931856001, -24.089297099591
1100, 49.300410172458, 69.022279706104, -26.689964607395
1101, 49.279705610101, 68.933234781988, -28.256711141052
1102, 62.008017378115, 68.782860757056, -27.699561485121
1103, 62.461670824164, 68.978032271722, -26.487466668122
1104, 50.477478290146, 69.171983498589, -28.598073130143
1105, 64.278719583535, 66.660673018163, -29.739581098699
1106, 48.198488768368, 69.773774450619, -25.115588278318
1107, 48.77128531099, 70.458778831276, -28.465287898447
1108, 57.552098182338, 66.043465726746, -34.655432969757
1109, 55.208648250639, 70.179093268429, -21.985773806473
1110, 59.88521561106, 70.223074261926, -26.423461907209
1111, 55.914228101134, 71.104122654102, -28.259016357927
1112, 51.578625888511, 68.563042140513, -32.14340188738
1113, 59.123019713578, 66.326023682024, -33.469631582416
1114, 61.309858678369, 65.118274677473, -34.188091755413
1115, 57.685150748112, 69.501756347009, -19.09895117539
1116, 64.138219522729, 68.481355364817, -20.549462259515
1117, 59.86714657894, 66.798248242973, -31.203310062692
1118, 55.165713619745, 69.95572401683, -20.76503076687
1119, 52.704762969537, 68.81486558455, -29.671918622281
1120, 58.462831753768, 67.239401244178, -30.892765365563
1121, 59.180039402803, 68.638966876455, -25.488690009457
1122, 55.471685410384, 67.826528143071, -31.04925384899
1123, 49.531698317191, 70.083820498736, -29.548055234104
1124, 54.403230985587, 71.702194637566, -24.770399079407
1125, 57.39169497781, 67.082206310739, -31.748530955112
1126, 53.228914477196, 68.468435330147, -30.702238570392
1127, 62.937485223966, 67.692461606048, -25.135864485931
1128, 61.894844705607, 67.481691764382, -27.52225165271
1129, 55.726434133135, 70.118301532953, -26.734655191263
1130, 56.856341477696, 70.493745363238, -29.126492040807
1131, 59.941451722562, 69.66376818463, -21.469402187836
1132, 51.940069312754, 69.415963118036, -26.609674545111
1133, 64.453010354148, 67.455063510034, -26.13418683891
1134, 59.090735234134, 68.447614167836, -31.774396462223
1135, 61.676709464284, 66.72894686758, -29.993795255948
1136, 50.565608599885, 71.194782459451, -23.045088360558
1137, 58.734770981384, 69.446393057086, -18.919871820611
1138, 64.737219953884, 68.179340589638, -22.819274009979
1139, 51.999249586723, 70.186464499193, -21.172696863153
1140, 56.504751017429, 69.812328104324, -19.360895685634
1141, 50.499855695887, 68.835629823021, -31.688397834285
1142, 64.752213935391, 68.170607747739, -22.04137911195
1143, 53.491377820914, 70.082062962399, -20.564901528394
1144, 55.366170800725, 69.8482402124, -19.68609062168
1145, 62.642110285407, 64.370033346648, -34.903893724566
1146, 55.637358965764, 65.551388324635, -36.550920289204
1147, 54.433621592389, 69.968974777859, -20.152073861055
1148, 49.155371639807, 70.262343963589, -22.096054689092
1149, 64.934110454482, 65.169848270323, -31.991849024362
1150, 60.028550250823, 64.973977817571, -35.470205215368
1151, 53.011376782478, 67.579764508696, -33.86523339849
1152, 64.064935767274, 68.378235572934, -19.522707458112
1153, 59.081208600644, 65.126160655354, -35.663334666563
1154, 60.923542221156, 64.898970130582, -35.147514310451
1155, 64.498235552237, 64.173143360863, -33.94448462334
1156, 64.803018278301, 66.211724605323, -30.324780315521
1157, 58.243679591428, 65.110344638313, -36.134964769372
1158, 52.511598073455, 67.875662868069, -33.313547721504
1159, 64.838071388888, 64.576378021848, -32.931890136625
1160, 54.601294966609, 66.569197692532, -34.959162186865
1161, 54.698477380597, 65.982923436421, -36.161603479939
1162, 64.437905540963, 68.342552336516, -21.387045846178
1163, 52.676760254895, 70.08119466951, -20.911389990036
1164, 61.779338270593, 64.796901785228, -34.909630992814
1165, 53.4336864314, 67.205192148762, -34.006465977168
1166, 63.647371907378, 64.290144744439, -34.340993420723
1167, 56.384989006328, 65.238021557771, -36.596752602073
1168, 57.219115731896, 65.123497459507, -36.456428413689
1169, 51.955575526496, 68.181644508512, -32.890338852791
1170, 64.68596651773, 65.967111471077, -31.177296284243
1171, 54.543179130832, 66.932645500632, -34.152151409677
1172, 55.020956576964, 65.614730995837, -36.699911142302
1173, 64.906118138725, 64.235837244897, -33.405998088304
1174, 54.537144776587, 66.27007328217, -35.634775735462
1175, 53.96301748514, 67.464378300783, -33.660492903639
******* E L E M E N T S *************
*ELEMENT, type=C3D4, ELSET=Volume1
1, 627, 916, 926, 1043
2, 400, 1076, 958, 1106
3, 259, 1143, 976, 1010
4, 33, 975, 905, 1008
5, 635, 926, 637, 1043
6, 1139, 976, 920, 93
7, 956, 1029, 944, 878
8, 135, 400, 958, 1106
9, 258, 914, 897, 927
10, 677, 485, 980, 1012
11, 920, 976, 348, 981
12, 453, 12, 956, 1029
13, 677, 1070, 980, 485
14, 955, 956, 878, 1029
15, 453, 956, 955, 1029
16, 1019, 1067, 204, 908
17, 571, 911, 990, 938
18, 286, 989, 897, 1042
19, 877, 155, 924, 1032
20, 1054, 962, 188, 900
21, 928, 962, 189, 1054
22, 28, 923, 964, 921
23, 898, 922, 748, 980
24, 135, 958, 915, 1106
25, 789, 629, 757, 930
26, 789, 882, 930, 988
27, 155, 877, 993, 225
28, 897, 286, 1042, 1094
29, 789, 882, 988, 1066
30, 897, 914, 258, 955
31, 1054, 188, 962, 189
32, 783, 1142, 1138, 818
33, 93, 920, 394, 976
34, 540, 911, 938, 990
35, 634, 926, 635, 1043
36, 936, 938, 547, 1055
37, 956, 944, 1029, 12
38, 905, 975, 33, 997
39, 172, 908, 204, 1067
40, 566, 823, 579, 1017
41, 958, 1076, 876, 1106
42, 1138, 659, 984, 1043
43, 713, 910, 909, 1103
44, 917, 1084, 159, 960
45, 675, 491, 1012, 1108
46, 1122, 980, 921, 898
47, 898, 921, 668, 980
48, 934, 627, 1043, 916
49, 328, 927, 914, 935
50, 225, 877, 952, 965
51, 917, 1084, 960, 876
52, 934, 627, 916, 626
53, 1138, 1142, 783, 984
54, 224, 877, 965, 1032
55, 344, 1023, 876, 1106
56, 540, 938, 801, 990
57, 672, 1017, 579, 1108
58, 527, 953, 903, 1073
59, 677, 491, 485, 1012
60, 867, 898, 748, 980
61, 172, 948, 908, 1067
62, 912, 860, 942, 945
63, 225, 224, 877, 965
64, 629, 930, 882, 1021
65, 398, 297, 1143, 397
66, 135, 117, 915, 958
67, 870, 899, 881, 971
68, 379, 921, 889, 923
69, 348, 920, 86, 976
70, 1138, 1142, 659, 818
71, 259, 1143, 1010, 292
72, 155, 877, 225, 224
73, 71, 1082, 897, 1083
74, 571, 911, 938, 754
75, 507, 903, 953, 1074
76, 566, 1017, 746, 1061
77, 44, 941, 963, 970
78, 788, 989, 946, 1093
79, 1144, 97, 1118, 1053
80, 1042, 925, 1094, 949
81, 928, 939, 235, 1104
82, 881, 899, 870, 1050
83, 879, 924, 62, 968
84, 872, 925, 897, 1042
85, 258, 897, 75, 927
86, 557, 1114, 593, 556
87, 871, 877, 929, 1025
88, 919, 877, 871, 1032
89, 538, 938, 911, 1055
90, 36, 949, 913, 1042
91, 608, 911, 741, 1060
92, 1054, 962, 1092, 928
93, 871, 924, 877, 1025
94, 881, 870, 978, 1050
95, 296, 405, 259, 976
96, 870, 881, 978, 1011
97, 204, 880, 203, 1067
98, 461, 334, 931, 939
99, 933, 172, 1067, 948
100, 557, 1114, 556, 554
101, 491, 677, 675, 1012
102, 12, 453, 382, 1029
103, 897, 1082, 925, 1083
104, 627, 916, 626, 605
105, 122, 915, 120, 931
106, 876, 932, 344, 1106
107, 531, 953, 527, 1073
108, 243, 431, 943, 1006
109, 1138, 817, 659, 1043
110, 1053, 1144, 165, 157
111, 691, 994, 643, 1020
112, 911, 902, 741, 1060
113, 135, 400, 117, 958
114, 33, 975, 1008, 1111
115, 1153, 1017, 579, 671
116, 123, 915, 122, 931
117, 71, 897, 955, 1083
118, 871, 877, 924, 1032
119, 595, 591, 1149, 1170
120, 455, 940, 884, 1004
121, 905, 975, 879, 1008
122, 1154, 1061, 1114, 565
123, 1016, 795, 576, 1042
124, 274, 1019, 908, 1034
125, 155, 877, 224, 1032
126, 881, 870, 971, 1011
127, 531, 953, 1073, 1128
128, 885, 317, 1004, 1056
129, 903, 902, 1055, 1135
130, 750, 946, 878, 1093
131, 167, 1140, 1053, 1033
132, 1041, 1045, 961, 899
133, 1041, 1045, 899, 421
134, 172, 204, 203, 1067
135, 1143, 976, 1010, 84
136, 71, 897, 258, 955
137, 902, 1073, 1051, 1135
138, 861, 947, 889, 1028
139, 1071, 76, 426, 998
140, 879, 968, 62, 1002
141, 62, 924, 879, 993
142, 981, 891, 94, 1034
143, 57, 914, 897, 989
144, 833, 777, 684, 1172
145, 1049, 347, 1131, 943
146, 917, 1084, 876, 932
147, 266, 901, 935, 1049
148, 944, 988, 887, 1062
149, 933, 172, 948, 171
150, 884, 940, 455, 992
151, 62, 993, 879, 1002
152, 432, 328, 914, 935
153, 757, 840, 789, 930
154, 885, 967, 317, 1056
155, 801, 990, 938, 1047
156, 889, 921, 379, 1052
157, 266, 906, 901, 1049
158, 903, 509, 507, 953
159, 1100, 120, 119, 915
160, 955, 423, 1029, 914
161, 203, 880, 933, 1067
162, 879, 883, 1008, 907
163, 1120, 890, 1021, 894
164, 946, 989, 878, 1093
165, 266, 1035, 901, 906
166, 538, 938, 1055, 547
167, 903, 1055, 936, 1135
168, 113, 971, 958, 979
169, 889, 947, 861, 1122
170, 939, 1101, 235, 1104
171, 912, 860, 945, 542
172, 557, 1020, 646, 1047
173, 930, 629, 630, 1021
174, 887, 944, 888, 1110
175, 673, 664, 828, 1108
176, 1120, 890, 894, 918
177, 259, 1143, 292, 296
178, 946, 989, 795, 1042
179, 547, 936, 714, 938
180, 902, 903, 706, 895
181, 28, 923, 921, 379
182, 225, 952, 877, 993
183, 887, 1096, 944, 1110
184, 82, 1010, 976, 84
185, 380, 889, 1048, 923
186, 987, 1079, 1009, 882
187, 735, 936, 547, 1055
188, 1120, 890, 918, 1078
189, 394, 976, 920, 981
190, 909, 892, 1089, 1103
191, 1120, 890, 1078, 1021
192, 28, 923, 379, 50
193, 1049, 347, 943, 395
194, 1175, 964, 725, 1070
195, 226, 969, 929, 1025
196, 714, 938, 936, 994
197, 1162, 984, 1142, 835
198, 899, 929, 349, 969
199, 668, 921, 898, 1052
200, 672, 671, 579, 1017
201, 909, 1089, 738, 1103
202, 887, 888, 1040, 1110
203, 1171, 677, 726, 1070
204, 233, 235, 928, 939
205, 1042, 1094, 925, 897
206, 262, 142, 421, 1045
207, 788, 946, 750, 1093
208, 44, 941, 810, 963
209, 508, 953, 904, 1074
210, 981, 94, 891, 920
211, 461, 939, 931, 1101
212, 644, 1149, 595, 643
213, 1150, 1061, 566, 746
214, 608, 911, 912, 945
215, 623, 922, 898, 980
216, 659, 1142, 1138, 984
217, 317, 967, 885, 1013
218, 882, 890, 930, 1000
219, 237, 885, 317, 1004
220, 969, 1025, 226, 1038
221, 750, 878, 946, 972
222, 873, 929, 919, 965
223, 860, 542, 543, 945
224, 541, 911, 540, 990
225, 713, 909, 738, 1103
226, 917, 1084, 932, 159
227, 605, 926, 916, 1089
228, 887, 1040, 1096, 1110
229, 721, 673, 664, 828
230, 644, 994, 651, 999
231, 557, 1114, 638, 1047
232, 659, 1142, 835, 818
233, 919, 877, 1032, 965
234, 55, 1049, 1131, 941
235, 782, 926, 637, 1069
236, 784, 1028, 1002, 1065
237, 1019, 1067, 908, 1071
238, 882, 930, 890, 1021
239, 608, 912, 911, 1060
240, 6, 937, 941, 963
241, 784, 1002, 930, 1065
242, 1070, 677, 726, 485
243, 627, 916, 605, 926
244, 872, 897, 989, 1042
245, 1016, 795, 1042, 946
246, 571, 575, 754, 938
247, 706, 903, 902, 1055
248, 904, 1073, 953, 1128
249, 262, 421, 899, 1045
250, 903, 953, 527, 954
251, 943, 1024, 347, 1131
252, 1113, 860, 945, 942
253, 1153, 1017, 671, 746
254, 993, 886, 1003, 952
255, 541, 945, 911, 990
256, 928, 256, 962, 1092
257, 1041, 1045, 421, 139
258, 36, 63, 913, 949
259, 491, 678, 677, 726
260, 984, 1142, 783, 705
261, 1041, 1045, 139, 961
262, 643, 994, 650, 644
263, 672, 579, 616, 1108
264, 782, 843, 926, 1069
265, 934, 627, 626, 755
266, 233, 939, 928, 1081
267, 701, 934, 1043, 916
268, 933, 1005, 240, 1109
269, 193, 189, 188, 1054
270, 317, 885, 237, 1013
271, 1140, 1053, 1033, 369
272, 763, 918, 912, 1134
273, 714, 999, 994, 936
274, 899, 961, 873, 971
275, 953, 1074, 1073, 904
276, 835, 1142, 659, 984
277, 1140, 1053, 369, 98
278, 536, 1051, 1073, 1135
279, 744, 579, 1017, 1108
280, 877, 924, 155, 993
281, 593, 557, 646, 1047
282, 993, 886, 952, 997
283, 928, 256, 1092, 234
284, 1170, 994, 644, 999
285, 941, 598, 937, 906
286, 1002, 1028, 883, 1065
287, 993, 886, 997, 905
288, 75, 258, 71, 897
289, 41, 901, 935, 1093
290, 557, 1114, 1047, 593
291, 499, 987, 985, 1079
292, 345, 1006, 252, 943
293, 927, 935, 328, 973
294, 1049, 347, 395, 55
295, 540, 829, 801, 938
296, 27, 1175, 1070, 964
297, 677, 491, 726, 485
298, 1031, 964, 22, 26
299, 919, 929, 899, 969
300, 121, 120, 122, 915
301, 829, 801, 938, 1047
302, 34, 913, 975, 1111
303, 499, 987, 1079, 501
304, 883, 1008, 907, 1130
305, 385, 885, 264, 952
306, 603, 605, 916, 1080
307, 744, 579, 823, 1017
308, 899, 919, 881, 971
309, 34, 913, 1111, 35
310, 901, 42, 935, 1049
311, 668, 898, 803, 1052
312, 1067, 1019, 998, 1071
313, 939, 1104, 928, 1123
314, 77, 908, 79, 948
315, 677, 675, 678, 491
316, 432, 935, 914, 1093
317, 541, 540, 801, 990
318, 903, 509, 953, 954
319, 987, 1009, 1079, 501
320, 1140, 1053, 1144, 165
321, 879, 883, 907, 1002
322, 909, 910, 866, 974
323, 1169, 192, 232, 191
324, 1067, 998, 1019, 880
325, 902, 647, 1055, 911
326, 873, 919, 899, 971
327, 889, 923, 921, 1086
328, 866, 909, 713, 910
329, 876, 870, 951, 960
330, 876, 870, 960, 979
331, 44, 963, 45, 970
332, 789, 882, 1066, 629
333, 264, 952, 885, 965
334, 1019, 1067, 880, 204
335, 113, 971, 979, 1011
336, 262, 1045, 899, 1050
337, 897, 914, 57, 927
338, 153, 1045, 262, 1050
339, 675, 785, 491, 1108
340, 159, 932, 211, 1084
341, 1144, 97, 1053, 98
342, 750, 878, 972, 1027
343, 157, 1053, 1118, 166
344, 33, 34, 975, 1111
345, 454, 914, 927, 935
346, 94, 891, 412, 1034
347, 911, 945, 584, 990
348, 511, 974, 953, 1046
349, 608, 584, 911, 945
350, 1100, 120, 915, 931
351, 153, 262, 1045, 142
352, 881, 1034, 1019, 1050
353, 912, 942, 607, 945
354, 930, 1002, 784, 1030
355, 226, 349, 929, 969
356, 341, 920, 891, 1022
357, 958, 961, 971, 966
358, 655, 1055, 936, 903
359, 243, 301, 431, 1006
360, 79, 948, 908, 976
361, 875, 944, 887, 1096
362, 634, 926, 1043, 627
363, 121, 122, 123, 915
364, 1061, 560, 1114, 553
365, 649, 1059, 918, 1134
366, 662, 1012, 491, 1108
367, 260, 1169, 192, 232
368, 930, 630, 629, 757
369, 1149, 642, 756, 1159
370, 538, 911, 902, 1055
371, 901, 906, 42, 1049
372, 883, 907, 1018, 1130
373, 635, 637, 817, 1043
374, 81, 77, 79, 948
375, 75, 933, 897, 1082
376, 941, 598, 906, 43
377, 894, 918, 890, 1059
378, 897, 925, 872, 1083
379, 1163, 976, 93, 296
380, 879, 975, 905, 993
381, 883, 907, 1002, 1030
382, 877, 1013, 967, 997
383, 1171, 677, 1070, 724
384, 240, 933, 927, 1005
385, 507, 953, 508, 1074
386, 608, 741, 911, 805
387, 31, 996, 905, 1048
388, 810, 941, 937, 963
389, 959, 970, 306, 1024
390, 953, 1073, 1074, 903
391, 71, 70, 1082, 1083
392, 955, 423, 914, 258
393, 878, 1027, 750, 1093
394, 476, 934, 937, 963
395, 393, 256, 900, 962
396, 899, 919, 873, 929
397, 887, 944, 875, 988
398, 380, 889, 923, 379
399, 538, 1055, 902, 1135
400, 1122, 980, 898, 867
401, 881, 919, 899, 969
402, 82, 948, 79, 976
403, 902, 903, 895, 1073
404, 919, 877, 965, 929
405, 41, 935, 432, 1093
406, 189, 962, 928, 977
407, 902, 895, 1051, 1073
408, 668, 623, 898, 980
409, 243, 1006, 943, 1007
410, 861, 889, 1003, 1028
411, 264, 885, 416, 965
412, 868, 678, 675, 491
413, 57, 897, 286, 989
414, 905, 993, 975, 997
415, 159, 917, 210, 932
416, 880, 925, 871, 949
417, 145, 421, 139, 1041
418, 924, 975, 877, 1025
419, 538, 735, 547, 1055
420, 903, 1073, 902, 1135
421, 874, 951, 958, 961
422, 902, 911, 538, 1117
423, 874, 961, 958, 966
424, 798, 934, 916, 937
425, 12, 956, 944, 1097
426, 902, 647, 911, 741
427, 955, 423, 258, 271
428, 1087, 1095, 749, 1128
429, 402, 923, 950, 1031
430, 721, 785, 809, 828
431, 985, 987, 882, 1079
432, 897, 927, 287, 933
433, 42, 906, 901, 1014
434, 75, 927, 897, 933
435, 1019, 1034, 1071, 908
436, 542, 945, 912, 1117
437, 890, 1000, 882, 1059
438, 721, 664, 785, 828
439, 1161, 833, 1172, 682
440, 888, 944, 887, 1062
441, 1118, 1144, 1053, 157
442, 978, 1045, 153, 1050
443, 491, 489, 485, 1012
444, 1021, 1065, 930, 890
445, 993, 886, 905, 1003
446, 871, 998, 880, 1019
447, 563, 1164, 728, 1154
448, 1019, 919, 871, 998
449, 1019, 919, 998, 881
450, 369, 1140, 98, 101
451, 785, 828, 664, 1108
452, 876, 870, 979, 958
453, 98, 369, 97, 1053
454, 876, 870, 958, 951
455, 883, 1018, 907, 1030
456, 880, 871, 1019, 1124
457, 385, 885, 1119, 1092
458, 63, 913, 949, 1038
459, 211, 932, 309, 1084
460, 398, 1143, 84, 1163
461, 921, 964, 28, 1070
462, 794, 1149, 756, 1159
463, 958, 971, 961, 870
464, 430, 344, 876, 932
465, 903, 509, 954, 839
466, 274, 908, 981, 1034
467, 1016, 795, 946, 780
468, 925, 1082, 70, 1083
469, 325, 1004, 317, 1056
470, 237, 885, 1004, 1054
471, 464, 376, 348, 920
472, 497, 1057, 985, 1096
473, 756, 642, 1149, 643
474, 868, 819, 678, 491
475, 893, 1095, 1087, 1128
476, 953, 974, 910, 1128
477, 538, 735, 1055, 1135
478, 958, 1106, 1023, 915
479, 1149, 756, 643, 794
480, 125, 915, 123, 931
481, 93, 394, 920, 460
482, 897, 872, 955, 1083
483, 877, 1013, 997, 952
484, 28, 923, 50, 964
485, 476, 937, 6, 963
486, 491, 675, 868, 785
487, 763, 912, 918, 942
488, 870, 961, 899, 971
489, 915, 931, 125, 1058
490, 914, 901, 419, 1029
491, 643, 586, 794, 1020
492, 333, 208, 1036, 1037
493, 920, 348, 202, 981
494, 871, 929, 919, 969
495, 929, 965, 873, 967
496, 885, 237, 1013, 1054
497, 1020, 719, 831, 851
498, 1144, 97, 98, 96
499, 1151, 1175, 736, 26
500, 205, 949, 36, 1042
501, 510, 953, 910, 1102
502, 875, 887, 985, 1096
503, 349, 929, 899, 1041
504, 914, 935, 901, 1093
505, 680, 678, 675, 868
506, 915, 958, 117, 1100
507, 934, 627, 755, 1043
508, 908, 976, 274, 981
509, 1126, 889, 886, 1003
510, 776, 944, 1062, 988
511, 333, 1036, 181, 1037
512, 1168, 1157, 616, 613
513, 746, 553, 560, 1061
514, 959, 983, 386, 1037
515, 883, 1015, 1000, 1065
516, 416, 885, 385, 1092
517, 42, 41, 901, 935
518, 936, 1055, 735, 1135
519, 910, 974, 573, 1128
520, 885, 957, 416, 965
521, 958, 971, 870, 979
522, 86, 376, 88, 920
523, 1150, 1061, 746, 560
524, 27, 1175, 964, 26
525, 375, 884, 1107, 1123
526, 870, 958, 951, 961
527, 749, 1095, 910, 1128
528, 1054, 1092, 962, 900
529, 885, 873, 965, 967
530, 879, 1008, 975, 1111
531, 985, 987, 772, 1096
532, 1046, 667, 703, 1105
533, 885, 873, 967, 1056
534, 154, 960, 951, 1045
535, 875, 985, 887, 988
536, 1021, 1065, 890, 1078
537, 1175, 725, 724, 1070
538, 416, 264, 385, 885
539, 510, 910, 953, 974
540, 455, 884, 330, 1004
541, 542, 539, 945, 1117
542, 153, 978, 378, 1045
543, 961, 966, 873, 971
544, 864, 934, 481, 937
545, 877, 1013, 952, 885
546, 380, 923, 1048, 1064
547, 884, 1104, 939, 1123
548, 761, 556, 557, 593
549, 611, 1168, 612, 613
550, 286, 54, 1042, 1094
551, 883, 996, 1000, 1015
552, 877, 965, 929, 967
553, 675, 828, 785, 1108
554, 266, 1035, 906, 9
555, 607, 945, 942, 1113
556, 83, 84, 85, 1010
557, 250, 927, 933, 1005
558, 893, 910, 1095, 1128
559, 870, 899, 1045, 1050
560, 393, 900, 950, 962
561, 7, 937, 906, 941
562, 701, 934, 916, 798
563, 520, 521, 974, 1046
564, 881, 978, 1011, 1034
565, 875, 882, 985, 988
566, 875, 882, 988, 930
567, 561, 766, 1164, 670
568, 430, 932, 876, 1084
569, 584, 805, 608, 911
570, 891, 960, 870, 979
571, 884, 1101, 939, 1104
572, 951, 960, 154, 1084
573, 661, 1125, 898, 1078
574, 1129, 907, 879, 1016
575, 1021, 1065, 1078, 630
576, 873, 885, 957, 1056
577, 906, 937, 7, 1075
578, 186, 950, 900, 962
579, 1126, 889, 1003, 1086
580, 82, 1010, 84, 83
581, 201, 931, 334, 939
582, 882, 1018, 985, 1079
583, 885, 416, 1104, 1092
584, 954, 903, 655, 936
585, 930, 1002, 883, 1065
586, 944, 1062, 888, 1121
587, 1067, 998, 880, 1082
588, 882, 985, 1018, 875
589, 7, 6, 937, 941
590, 1016, 795, 780, 576
591, 817, 782, 659, 1043
592, 870, 1045, 978, 1050
593, 1118, 1147, 1144, 157
594, 891, 870, 960, 978
595, 884, 992, 455, 1107
596, 360, 963, 941, 970
597, 701, 934, 798, 699
598, 919, 877, 929, 871
599, 874, 958, 951, 1023
600, 1129, 907, 1016, 872
601, 838, 1009, 501, 1079
602, 915, 958, 874, 1023
603, 152, 153, 378, 1045
604, 991, 730, 546, 942
605, 557, 761, 593, 646
606, 883, 1000, 996, 1130
607, 140, 154, 951, 1045
608, 86, 88, 1139, 920
609, 771, 890, 1015, 918
610, 255, 256, 234, 1092
611, 225, 952, 264, 965
612, 430, 309, 932, 1084
613, 749, 1090, 910, 1095
614, 643, 994, 644, 586
615, 1126, 889, 1086, 923
616, 701, 926, 916, 1043
617, 626, 864, 916, 934
618, 904, 987, 506, 1074
619, 1126, 889, 923, 886
620, 959, 150, 386, 983
621, 1143, 976, 84, 1163
622, 877, 1013, 885, 967
623, 748, 922, 898, 1125
624, 350, 120, 1100, 931
625, 873, 957, 885, 965
626, 1031, 22, 964, 21
627, 680, 809, 785, 828
628, 333, 181, 409, 1037
629, 6, 941, 360, 963
630, 136, 951, 1023, 1077
631, 350, 1100, 1044, 931
632, 286, 38, 989, 1042
633, 870, 979, 971, 1011
634, 375, 884, 1123, 330
635, 954, 655, 903, 839
636, 888, 887, 1040, 1062
637, 188, 186, 900, 962
638, 368, 950, 1064, 900
639, 885, 952, 877, 965
640, 1168, 611, 1157, 613
641, 151, 173, 1037, 1063
642, 613, 1168, 612, 856
643, 101, 1033, 369, 1140
644, 1019, 919, 881, 969
645, 613, 616, 1168, 856
646, 141, 90, 920, 1022
647, 782, 696, 843, 1069
648, 746, 671, 551, 1017
649, 481, 937, 934, 963
650, 735, 714, 547, 936
651, 878, 875, 972, 944
652, 878, 875, 944, 956
653, 789, 882, 629, 930
654, 344, 430, 876, 1023
655, 882, 1021, 890, 1059
656, 838, 1059, 1009, 1079
657, 455, 326, 940, 1004
658, 231, 928, 977, 1081
659, 959, 150, 983, 970
660, 631, 1078, 1021, 1120
661, 714, 999, 936, 844
662, 930, 630, 733, 1065
663, 1167, 685, 617, 612
664, 1067, 998, 1082, 76
665, 784, 486, 1028, 1065
666, 328, 57, 914, 927
667, 325, 237, 317, 1004
668, 255, 393, 256, 900
669, 161, 959, 182, 1131
670, 375, 884, 330, 455
671, 905, 996, 32, 1008
672, 485, 1012, 488, 980
673, 344, 459, 1023, 1106
674, 889, 923, 886, 1048
675, 1168, 1167, 721, 617
676, 31, 32, 905, 996
677, 7, 906, 448, 941
678, 343, 344, 932, 1106
679, 921, 980, 740, 1070
680, 530, 894, 1009, 1059
681, 924, 968, 879, 1129
682, 936, 994, 582, 999
683, 877, 885, 965, 967
684, 181, 1036, 435, 1037
685, 998, 1019, 881, 1071
686, 539, 911, 945, 1117
687, 65, 1086, 1126, 1003
688, 1067, 998, 76, 1071
689, 523, 974, 953, 1128
690, 986, 987, 904, 1074
691, 776, 944, 988, 477
692, 36, 205, 63, 949
693, 1170, 994, 999, 590
694, 294, 932, 1076, 1106
695, 353, 1063, 151, 1037
696, 508, 904, 953, 1102
697, 921, 483, 980, 1070
698, 886, 383, 997, 1048
699, 930, 1018, 883, 1030
700, 730, 991, 802, 1012
701, 510, 953, 511, 974
702, 435, 983, 1037, 1036
703, 916, 937, 747, 1099
704, 8, 906, 7, 1075
705, 487, 964, 921, 1070
706, 1135, 527, 954, 903
707, 763, 607, 912, 942
708, 617, 1146, 685, 1167
709, 296, 93, 405, 976
710, 918, 922, 624, 942
711, 714, 999, 844, 651
712, 880, 998, 1072, 1082
713, 880, 1072, 925, 1082
714, 497, 496, 985, 1057
715, 483, 921, 28, 1070
716, 649, 1059, 890, 918
717, 287, 897, 57, 927
718, 248, 952, 993, 1003
719, 889, 996, 143, 1048
720, 1153, 1017, 746, 566
721, 822, 639, 938, 994
722, 798, 937, 916, 1075
723, 68, 968, 924, 1129
724, 433, 963, 983, 1068
725, 908, 948, 357, 976
726, 1116, 1036, 60, 1001
727, 368, 950, 900, 186
728, 385, 1119, 885, 952
729, 609, 996, 1000, 1130
730, 8, 448, 7, 906
731, 883, 947, 1015, 1065
732, 1154, 1061, 565, 1150
733, 917, 1148, 1085, 219
734, 186, 368, 188, 900
735, 880, 949, 871, 1124
736, 496, 1018, 985, 1057
737, 1161, 833, 684, 1172
738, 274, 285, 1019, 1034
739, 904, 987, 986, 1026
740, 476, 6, 937, 729
741, 906, 1014, 479, 1099
742, 447, 970, 959, 983
743, 1057, 878, 946, 956
744, 886, 1003, 952, 1119
745, 978, 1034, 881, 1050
746, 563, 1164, 1154, 561
747, 969, 1019, 871, 1124
748, 1000, 1015, 890, 1065
749, 123, 122, 124, 931
750, 557, 558, 556, 761
751, 538, 938, 547, 540
752, 629, 1021, 882, 1066
753, 203, 933, 880, 1094
754, 958, 1023, 1106, 876
755, 527, 1135, 653, 533
756, 951, 958, 876, 1023
757, 350, 1100, 278, 1044
758, 132, 1023, 1058, 1077
759, 382, 955, 423, 1029
760, 1168, 1167, 856, 721
761, 1164, 761, 556, 1145
762, 139, 961, 1045, 1077
763, 672, 579, 671, 616
764, 367, 951, 154, 1084
765, 617, 809, 1167, 721
766, 516, 514, 1046, 974
767, 851, 719, 794, 1020
768, 754, 1055, 911, 938
769, 1170, 999, 644, 849
770, 11, 944, 1029, 1121
771, 11, 944, 12, 1029
772, 57, 286, 39, 989
773, 969, 871, 1038, 1124
774, 82, 1010, 83, 81
775, 89, 469, 91, 920
776, 972, 1057, 497, 1096
777, 65, 1086, 1003, 18
778, 790, 816, 1069, 1089
779, 763, 918, 624, 942
780, 1046, 667, 1105, 656
781, 872, 878, 946, 989
782, 995, 1007, 466, 1137
783, 1019, 1034, 285, 1050
784, 790, 1069, 926, 1089
785, 461, 334, 130, 931
786, 808, 909, 1069, 1133
787, 536, 1073, 532, 1135
788, 140, 154, 367, 951
789, 1171, 677, 724, 678
790, 872, 878, 989, 955
791, 1157, 579, 616, 671
792, 776, 944, 477, 769
793, 365, 31, 905, 1048
794, 171, 933, 240, 1109
795, 897, 933, 287, 1094
796, 454, 935, 927, 973
797, 101, 98, 100, 1140
798, 598, 937, 906, 1099
799, 701, 916, 926, 1127
800, 542, 539, 541, 945
801, 447, 983, 959, 1037
802, 1042, 1129, 925, 913
803, 491, 819, 678, 726
804, 848, 803, 898, 1015
805, 201, 931, 939, 1107
806, 1066, 1073, 1051, 895
807, 872, 878, 955, 956
808, 904, 506, 987, 1026
809, 907, 1008, 879, 1111
810, 35, 1016, 913, 1111
811, 578, 858, 1020, 1047
812, 487, 921, 740, 1070
813, 472, 984, 48, 1068
814, 872, 878, 956, 946
815, 357, 908, 172, 948
816, 944, 1027, 1029, 1121
817, 259, 1143, 296, 976
818, 346, 943, 935, 973
819, 933, 352, 250, 1109
820, 960, 979, 891, 1136
821, 913, 949, 925, 1042
822, 368, 1013, 900, 1064
823, 248, 952, 1003, 1119
824, 661, 947, 898, 1122
825, 1068, 1162, 1116, 3
826, 422, 969, 1019, 1050
827, 539, 911, 541, 945
828, 345, 1006, 943, 973
829, 940, 961, 874, 966
830, 822, 859, 639, 994
831, 873, 965, 919, 1132
832, 1021, 1065, 630, 930
833, 941, 598, 43, 810
834, 73, 1072, 998, 1082
835, 986, 988, 987, 1066
836, 30, 889, 379, 1052
837, 679, 980, 922, 1012
838, 190, 1141, 962, 977
839, 898, 947, 661, 1078
840, 125, 134, 915, 1023
841, 957, 966, 940, 1044
842, 617, 1146, 1167, 809
843, 33, 975, 429, 997
844, 461, 931, 130, 1101
845, 473, 946, 788, 989
846, 21, 725, 22, 964
847, 408, 927, 250, 1005
848, 970, 1024, 959, 1131
849, 266, 1035, 9, 418
850, 782, 637, 696, 1069
851, 589, 631, 1021, 1120
852, 933, 250, 1005, 1109
853, 914, 419, 901, 935
854, 380, 889, 379, 143
855, 225, 264, 224, 965
856, 887, 987, 985, 1096
857, 903, 509, 839, 507
858, 217, 1106, 343, 932
859, 33, 1008, 480, 1111
860, 855, 749, 652, 1087
861, 254, 396, 389, 1064
862, 530, 894, 688, 1009
863, 383, 886, 997, 1013
864, 959, 150, 970, 161
865, 998, 1082, 76, 73
866, 1153, 746, 671, 797
867, 1157, 723, 1153, 615
868, 1006, 252, 943, 1007
869, 433, 983, 1001, 1068
870, 723, 1157, 611, 615
871, 155, 924, 62, 993
872, 913, 975, 924, 1025
873, 68, 62, 924, 968
874, 1068, 1162, 3, 984
875, 82, 948, 976, 1010
876, 417, 181, 435, 1037
877, 908, 948, 77, 1067
878, 1157, 1153, 671, 615
879, 1057, 878, 956, 875
880, 192, 1169, 61, 191
881, 888, 1027, 944, 1121
882, 182, 959, 995, 1024
883, 226, 929, 267, 1025
884, 582, 936, 610, 1055
885, 161, 970, 959, 1131
886, 853, 646, 557, 1020
887, 1112, 1141, 962, 427
888, 1042, 1129, 913, 1016
889, 347, 1024, 304, 1131
890, 608, 912, 607, 945
891, 891, 377, 979, 1011
892, 750, 946, 622, 972
893, 891, 978, 960, 1136
894, 771, 890, 918, 649
895, 872, 989, 946, 1042
896, 254, 389, 886, 1064
897, 1119, 1003, 1126, 886
898, 587, 1021, 588, 1051
899, 86, 348, 376, 920
900, 1007, 1115, 466, 1137
901, 22, 725, 596, 1175
902, 5, 963, 433, 1068
903, 899, 969, 331, 1050
904, 448, 941, 906, 1049
905, 643, 794, 813, 1020
906, 57, 39, 914, 989
907, 71, 67, 70, 1083
908, 1057, 878, 972, 946
909, 250, 927, 75, 933
910, 708, 890, 649, 1059
911, 528, 1026, 904, 1102
912, 113, 979, 377, 1011
913, 204, 880, 1019, 1124
914, 168, 1147, 1010, 1118
915, 886, 1048, 923, 1064
916, 733, 784, 930, 1065
917, 640, 1093, 1027, 901
918, 877, 929, 1025, 1088
919, 211, 159, 210, 932
920, 887, 987, 986, 988
921, 1020, 831, 719, 559
922, 82, 948, 1010, 81
923, 708, 1000, 890, 1059
924, 580, 616, 579, 1108
925, 918, 942, 912, 1120
926, 918, 1059, 894, 1134
927, 678, 680, 819, 868
928, 722, 887, 1040, 1096
929, 36, 35, 824, 913
930, 129, 905, 33, 997
931, 1062, 825, 988, 986
932, 960, 978, 249, 1136
933, 928, 1081, 939, 1123
934, 353, 1063, 1037, 354
935, 267, 226, 349, 929
936, 871, 913, 924, 1025
937, 972, 1027, 944, 1110
938, 65, 1086, 18, 19
939, 419, 423, 914, 1029
940, 879, 993, 905, 1028
941, 874, 940, 966, 1044
942, 706, 902, 842, 1055
943, 217, 1106, 932, 294
944, 941, 598, 810, 937
945, 888, 1039, 1035, 1121
946, 926, 700, 782, 1043
947, 507, 509, 508, 953
948, 53, 943, 935, 1049
949, 873, 961, 940, 966
950, 785, 809, 617, 721
951, 949, 1042, 54, 1094
952, 911, 1060, 912, 1117
953, 63, 1025, 913, 1038
954, 916, 892, 1089, 1127
955, 33, 480, 34, 1111
956, 1019, 919, 969, 871
957, 510, 508, 953, 1102
958, 942, 1120, 918, 1125
959, 65, 1086, 19, 1126
960, 419, 914, 454, 935
961, 926, 782, 700, 843
962, 881, 971, 919, 1098
963, 792, 1008, 996, 1130
964, 652, 1087, 749, 1128
965, 94, 394, 920, 981
966, 701, 934, 699, 1043
967, 894, 890, 1021, 1059
968, 345, 1006, 973, 246
969, 887, 1026, 722, 1040
970, 914, 989, 39, 1093
971, 872, 946, 1016, 1042
972, 498, 497, 496, 985
973, 432, 328, 57, 914
974, 883, 947, 996, 1015
975, 916, 1089, 926, 1127
976, 866, 910, 510, 974
977, 353, 1063, 354, 176
978, 424, 928, 962, 977
979, 879, 1002, 993, 1028
980, 888, 944, 1027, 1110
981, 258, 454, 914, 927
982, 655, 1055, 903, 706
983, 235, 939, 372, 1101
984, 1122, 980, 867, 740
985, 419, 266, 901, 935
986, 578, 577, 858, 1047
987, 44, 810, 45, 963
988, 190, 1141, 977, 392
989, 190, 1141, 392, 427
990, 530, 753, 894, 1059
991, 486, 947, 861, 1028
992, 1158, 1169, 61, 192
993, 847, 912, 942, 1120
994, 598, 906, 479, 1099
995, 879, 905, 1008, 1028
996, 897, 955, 872, 989
997, 368, 1013, 1064, 254
998, 1172, 732, 862, 833
999, 125, 123, 124, 931
1000, 991, 922, 490, 1012
1001, 210, 932, 917, 1085
1002, 848, 1015, 898, 918
1003, 394, 1034, 274, 981
1004, 1120, 1051, 587, 1117
1005, 649, 753, 1059, 1134
1006, 383, 254, 389, 886
1007, 928, 1092, 1004, 1104
1008, 1057, 878, 875, 972
1009, 1157, 671, 616, 615
1010, 114, 958, 113, 971
1011, 62, 16, 993, 1002
1012, 196, 1081, 438, 977
1013, 991, 922, 1012, 730
1014, 383, 254, 886, 1013
1015, 894, 1066, 1021, 1051
1016, 290, 919, 998, 1072
1017, 394, 1034, 981, 94
1018, 991, 546, 730, 802
1019, 913, 925, 924, 1129
1020, 412, 978, 891, 1136
1021, 260, 1169, 1158, 192
1022, 55, 347, 304, 1131
1023, 578, 1020, 938, 1047
1024, 944, 972, 878, 1027
1025, 394, 274, 976, 981
1026, 557, 853, 761, 646
1027, 1129, 907, 872, 968
1028, 953, 512, 511, 1046
1029, 987, 988, 882, 1066
1030, 940, 957, 873, 966
1031, 1170, 994, 590, 586
1032, 400, 979, 958, 1076
1033, 894, 1066, 1051, 895
1034, 813, 719, 559, 1020
1035, 169, 1109, 1053, 1118
1036, 882, 1059, 1000, 1079
1037, 991, 1017, 791, 1108
1038, 1129, 907, 968, 879
1039, 896, 1014, 906, 1099
1040, 783, 1142, 628, 705
1041, 1170, 999, 592, 590
1042, 876, 1023, 430, 1084
1043, 893, 982, 762, 1040
1044, 1066, 1073, 895, 986
1045, 1144, 97, 96, 1118
1046, 260, 1158, 22, 319
1047, 1113, 860, 942, 546
1048, 231, 928, 1081, 233
1049, 218, 1076, 932, 1085
1050, 713, 866, 738, 909
1051, 585, 586, 994, 1020
1052, 890, 1000, 708, 1015
1053, 748, 922, 679, 980
1054, 506, 904, 528, 1026
1055, 255, 393, 900, 1119
1056, 913, 924, 925, 871
1057, 53, 943, 1049, 336
1058, 262, 899, 331, 1050
1059, 779, 946, 907, 1057
1060, 808, 1069, 909, 1127
1061, 169, 1005, 1053, 1109
1062, 88, 141, 90, 920
1063, 1009, 1059, 882, 1079
1064, 917, 351, 321, 210
1065, 928, 1054, 1004, 1092
1066, 368, 1013, 254, 194
1067, 875, 972, 944, 1096
1068, 517, 909, 974, 1133
1069, 488, 922, 980, 1012
1070, 912, 1117, 894, 1120
1071, 889, 886, 905, 1048
1072, 340, 341, 891, 1022
1073, 917, 351, 210, 1085
1074, 894, 912, 1060, 1117
1075, 514, 974, 511, 1046
1076, 42, 901, 640, 1014
1077, 538, 938, 540, 911
1078, 1062, 988, 825, 776
1079, 1170, 1156, 999, 849
1080, 290, 1032, 919, 1072
1081, 95, 1147, 1118, 1010
1082, 877, 975, 924, 993
1083, 879, 924, 975, 993
1084, 1112, 1141, 427, 270
1085, 1135, 954, 527, 653
1086, 159, 209, 917, 960
1087, 641, 1027, 972, 1110
1088, 26, 964, 439, 1031
1089, 917, 979, 960, 1136
1090, 990, 1113, 1061, 544
1091, 1091, 1090, 892, 1127
1092, 630, 660, 1065, 1078
1093, 1153, 579, 566, 567
1094, 1166, 814, 831, 559
1095, 893, 762, 1026, 1040
1096, 68, 925, 924, 1072
1097, 352, 933, 948, 1109
1098, 929, 969, 871, 1025
1099, 661, 1125, 1078, 773
1100, 871, 925, 913, 949
1101, 853, 831, 646, 1020
1102, 720, 1166, 793, 831
1103, 383, 886, 389, 1048
1104, 593, 1164, 556, 1114
1105, 241, 983, 1036, 1037
1106, 982, 1095, 1103, 1080
1107, 517, 909, 866, 974
1108, 885, 1004, 957, 1056
1109, 290, 998, 919, 1098
1110, 701, 1091, 916, 1127
1111, 599, 1014, 896, 1099
1112, 271, 1083, 71, 955
1113, 643, 994, 586, 1020
1114, 68, 924, 925, 1129
1115, 173, 288, 1037, 1063
1116, 649, 918, 648, 1134
1117, 686, 680, 809, 785
1118, 905, 997, 129, 1048
1119, 387, 1003, 993, 1028
1120, 287, 927, 240, 933
1121, 847, 1120, 942, 1125
1122, 910, 893, 1102, 1128
1123, 849, 644, 1170, 595
1124, 886, 997, 905, 1048
1125, 626, 864, 747, 916
1126, 1116, 60, 1036, 291
1127, 633, 926, 790, 1069
1128, 775, 1133, 808, 1069
1129, 813, 643, 756, 794
1130, 1166, 831, 814, 1155
1131, 286, 897, 287, 1094
1132, 1091, 1090, 1127, 865
1133, 353, 1063, 176, 151
1134, 248, 952, 225, 993
1135, 572, 972, 497, 1096
1136, 1056, 929, 1041, 873
1137, 661, 898, 867, 1122
1138, 861, 1003, 889, 1086
1139, 1019, 1071, 1034, 881
1140, 1095, 982, 896, 1080
1141, 588, 1051, 1021, 1066
1142, 884, 330, 1004, 1123
1143, 434, 250, 75, 933
1144, 452, 997, 967, 1013
1145, 171, 948, 933, 1109
1146, 106, 943, 1049, 1131
1147, 680, 819, 868, 820
1148, 294, 932, 218, 1076
1149, 248, 1003, 65, 1119
1150, 63, 949, 205, 1038
1151, 907, 968, 879, 1002
1152, 152, 960, 154, 1045
1153, 841, 1046, 703, 1105
1154, 938, 994, 639, 1020
1155, 907, 879, 1016, 1111
1156, 1056, 929, 873, 967
1157, 899, 929, 873, 1041
1158, 250, 408, 75, 927
1159, 938, 1020, 639, 1047
1160, 879, 883, 1002, 1028
1161, 1143, 1010, 85, 84
1162, 888, 1027, 1014, 1110
1163, 196, 438, 1081, 198
1164, 190, 1141, 427, 962
1165, 827, 892, 693, 1089
1166, 304, 306, 970, 1024
1167, 996, 1008, 905, 1028
1168, 898, 1015, 803, 1052
1169, 283, 1148, 1022, 917
1170, 785, 617, 664, 721
1171, 1075, 1039, 896, 1091
1172, 556, 1164, 555, 1114
1173, 798, 525, 937, 1075
1174, 889, 996, 905, 1028
1175, 894, 688, 1009, 895
1176, 602, 896, 982, 1080
1177, 382, 11, 12, 1029
1178, 204, 203, 880, 1124
1179, 628, 1142, 783, 818
1180, 1150, 566, 565, 564
1181, 42, 479, 906, 1014
1182, 349, 362, 929, 1041
1183, 14, 956, 1030, 968
1184, 27, 28, 964, 1070
1185, 1004, 1092, 885, 1104
1186, 1031, 1126, 20, 923
1187, 253, 317, 237, 1013
1188, 357, 976, 948, 1010
1189, 1075, 1039, 1091, 759
1190, 893, 982, 1039, 1095
1191, 55, 360, 941, 1131
1192, 907, 946, 779, 1016
1193, 252, 943, 1007, 1024
1194, 589, 687, 631, 1120
1195, 495, 1130, 1018, 907
1196, 883, 1002, 930, 1030
1197, 231, 928, 233, 234
1198, 816, 1133, 727, 1069
1199, 486, 947, 1028, 1065
1200, 505, 902, 706, 895
1201, 31, 143, 996, 1048
1202, 304, 1024, 970, 1131
1203, 975, 993, 877, 997
1204, 492, 907, 1111, 1130
1205, 559, 831, 853, 1020
1206, 707, 1000, 1015, 708
1207, 911, 902, 1060, 1117
1208, 350, 1100, 120, 118
1209, 1004, 366, 928, 1123
1210, 345, 943, 346, 973
1211, 781, 1075, 916, 1091
1212, 368, 1013, 194, 900
1213, 705, 1162, 1142, 628
1214, 448, 55, 941, 1049
1215, 333, 208, 364, 1036
1216, 917, 960, 209, 1136
1217, 537, 902, 1117, 1051
1218, 870, 891, 979, 1011
1219, 788, 473, 750, 946
1220, 305, 959, 306, 1024
1221, 287, 286, 57, 897
1222, 813, 794, 719, 1020
1223, 730, 942, 922, 1125
1224, 599, 479, 1014, 1099
1225, 933, 250, 352, 434
1226, 1119, 1126, 1003, 65
1227, 861, 1086, 889, 1122
1228, 215, 1085, 932, 213
1229, 151, 173, 174, 1037
1230, 922, 942, 918, 1125
1231, 894, 1060, 1051, 1117
1232, 636, 633, 790, 1069
1233, 32, 365, 31, 905
1234, 317, 452, 967, 1013
1235, 928, 195, 1081, 1123
1236, 204, 390, 203, 1124
1237, 895, 987, 986, 1074
1238, 471, 220, 215, 932
1239, 536, 1051, 689, 1073
1240, 869, 1014, 1027, 1110
1241, 258, 419, 423, 914
1242, 791, 1017, 991, 1113
1243, 1056, 929, 967, 362
1244, 412, 249, 978, 1136
1245, 928, 1081, 195, 977
1246, 160, 958, 979, 113
1247, 249, 209, 960, 1136
1248, 1170, 999, 1156, 592
1249, 76, 1067, 74, 1082
1250, 697, 1016, 35, 1111
1251, 891, 978, 412, 1034
1252, 14, 956, 968, 1083
1253, 871, 1025, 969, 1038
1254, 312, 386, 983, 1037
1255, 896, 1080, 1091, 1095
1256, 982, 1103, 1095, 893
1257, 959, 150, 161, 386
1258, 597, 930, 784, 1030
1259, 1095, 896, 982, 1039
1260, 959, 354, 1037, 1063
1261, 1140, 289, 1115, 1033
1262, 950, 1031, 923, 1126
1263, 957, 1004, 885, 1104
1264, 969, 1124, 318, 1019
1265, 905, 996, 889, 1048
1266, 831, 1155, 1166, 793
1267, 848, 474, 803, 1015
1268, 602, 896, 600, 982
1269, 631, 630, 1021, 1078
1270, 408, 973, 927, 1005
1271, 1150, 1061, 565, 566
1272, 1008, 1111, 907, 1130
1273, 573, 974, 910, 1090
1274, 763, 648, 918, 1134
1275, 853, 559, 1166, 831
1276, 925, 949, 880, 1094
1277, 188, 368, 194, 900
1278, 659, 658, 984, 1043
1279, 34, 913, 35, 403
1280, 982, 869, 698, 1110
1281, 944, 618, 1062, 1121
1282, 803, 668, 623, 898
1283, 894, 1060, 688, 895
1284, 1120, 1051, 1117, 894
1285, 1118, 1147, 96, 1144
1286, 189, 928, 195, 977
1287, 688, 1060, 894, 1134
1288, 271, 71, 258, 955
1289, 257, 995, 1137, 1007
1290, 402, 964, 923, 1031
1291, 34, 913, 403, 975
1292, 1154, 728, 565, 1114
1293, 519, 974, 521, 1133
1294, 887, 987, 722, 1026
1295, 870, 978, 891, 1011
1296, 890, 1065, 947, 1078
1297, 1147, 1144, 157, 156
1298, 243, 1007, 943, 1024
1299, 1039, 1121, 10, 1035
1300, 265, 969, 1038, 1124
1301, 538, 902, 534, 1135
1302, 838, 501, 499, 1079
1303, 985, 1018, 496, 1079
1304, 1154, 1061, 1150, 560
1305, 894, 1066, 895, 1009
1306, 665, 776, 825, 988
1307, 261, 211, 309, 1084
1308, 587, 1021, 1051, 1120
1309, 40, 914, 39, 1093
1310, 523, 573, 974, 1128
1311, 1163, 976, 84, 86
1312, 940, 992, 884, 1044
1313, 219, 1148, 1085, 370
1314, 885, 1104, 416, 957
1315, 953, 974, 523, 1046
1316, 530, 753, 688, 894
1317, 488, 922, 623, 980
1318, 241, 1036, 208, 1037
1319, 603, 1080, 916, 1099
1320, 203, 1094, 880, 1124
1321, 762, 982, 893, 1103
1322, 537, 902, 1051, 534
1323, 389, 1048, 886, 1064
1324, 879, 924, 913, 975
1325, 985, 1018, 875, 1057
1326, 485, 488, 1012, 489
1327, 930, 1000, 890, 1065
1328, 491, 785, 662, 1108
1329, 544, 1113, 1061, 545
1330, 42, 53, 41, 935
1331, 754, 1055, 938, 581
1332, 1159, 814, 1173, 812
1333, 737, 1175, 1171, 475
1334, 32, 33, 905, 1008
1335, 872, 907, 946, 956
1336, 660, 947, 1065, 1078
1337, 160, 958, 113, 115
1338, 824, 913, 35, 1016
1339, 483, 668, 921, 980
1340, 1091, 1090, 865, 1095
1341, 599, 1080, 1099, 896
1342, 750, 622, 946, 796
1343, 854, 968, 14, 1030
1344, 524, 527, 953, 954
1345, 609, 792, 996, 1130
1346, 816, 1069, 909, 1133
1347, 283, 1148, 917, 219
1348, 623, 918, 922, 624
1349, 917, 321, 1022, 1136
1350, 913, 879, 1016, 1129
1351, 890, 947, 898, 1078
1352, 1147, 99, 156, 373
1353, 914, 955, 897, 989
1354, 600, 982, 896, 1014
1355, 932, 1076, 917, 1085
1356, 874, 992, 940, 1044
1357, 1006, 252, 1007, 251
1358, 287, 381, 240, 927
1359, 690, 761, 1145, 1166
1360, 898, 947, 890, 1015
1361, 516, 515, 974, 1133
1362, 873, 957, 940, 1056
1363, 603, 604, 605, 1080
1364, 798, 916, 781, 1075
1365, 915, 931, 874, 1100
1366, 886, 1013, 254, 1064
1367, 679, 677, 980, 1012
1368, 957, 1004, 940, 1056
1369, 912, 945, 911, 1117
1370, 893, 888, 1040, 1062
1371, 896, 1091, 1039, 1095
1372, 29, 379, 921, 1052
1373, 917, 876, 960, 979
1374, 160, 958, 115, 400
1375, 160, 958, 400, 979
1376, 1091, 1090, 1095, 892
1377, 424, 928, 977, 231
1378, 933, 172, 171, 203
1379, 741, 647, 911, 805
1380, 167, 1140, 1033, 289
1381, 53, 935, 42, 1049
1382, 40, 432, 914, 1093
1383, 787, 963, 934, 1068
1384, 714, 999, 651, 994
1385, 454, 346, 935, 973
1386, 875, 907, 956, 1057
1387, 915, 874, 931, 1058
1388, 973, 408, 245, 1005
1389, 1032, 69, 155, 924
1390, 1096, 722, 752, 1040
1391, 381, 927, 328, 973
1392, 66, 1031, 950, 1126
1393, 331, 899, 349, 969
1394, 266, 1035, 418, 901
1395, 955, 956, 453, 1083
1396, 919, 971, 873, 1132
1397, 433, 52, 58, 983
1398, 7, 360, 6, 941
1399, 837, 634, 783, 984
1400, 935, 943, 327, 973
1401, 775, 1133, 1069, 751
1402, 1096, 752, 722, 772
1403, 125, 1023, 915, 1058
1404, 1158, 26, 59, 1031
1405, 654, 936, 582, 999
1406, 753, 688, 894, 1134
1407, 882, 1021, 1009, 1066
1408, 593, 646, 577, 1047
1409, 1171, 1175, 737, 596
1410, 403, 913, 63, 1025
1411, 776, 944, 618, 1062
1412, 877, 1025, 975, 1088
1413, 883, 1008, 996, 1028
1414, 5, 934, 963, 1068
1415, 188, 900, 194, 1054
1416, 581, 582, 610, 1055
1417, 266, 935, 395, 1049
1418, 346, 395, 935, 943
1419, 792, 32, 996, 1008
1420, 188, 189, 187, 962
1421, 883, 1028, 947, 1065
1422, 1018, 882, 875, 930
1423, 993, 1002, 16, 1028
1424, 151, 174, 353, 1037
1425, 578, 994, 938, 1020
1426, 876, 979, 917, 1076
1427, 74, 933, 1082, 1067
1428, 201, 334, 293, 939
1429, 190, 962, 189, 977
1430, 477, 12, 944, 1097
1431, 876, 1076, 932, 1106
1432, 925, 1072, 388, 1082
1433, 743, 909, 974, 1090
1434, 519, 974, 1133, 516
1435, 844, 714, 735, 936
1436, 893, 1026, 762, 1102
1437, 959, 354, 1063, 443
1438, 942, 549, 847, 1125
1439, 827, 892, 1089, 605
1440, 790, 926, 632, 1089
1441, 884, 957, 940, 1044
1442, 468, 940, 1056, 1041
1443, 747, 864, 481, 937
1444, 917, 1148, 1022, 351
1445, 1056, 929, 362, 1041
1446, 217, 1106, 294, 295
1447, 125, 459, 134, 1023
1448, 639, 994, 691, 1020
1449, 1018, 882, 930, 1000
1450, 433, 983, 58, 1001
1451, 885, 900, 1013, 1119
1452, 930, 1000, 883, 1018
1453, 946, 956, 907, 1057
1454, 356, 939, 228, 1081
1455, 653, 954, 936, 1135
1456, 640, 1093, 901, 41
1457, 907, 956, 872, 968
1458, 114, 966, 958, 971
1459, 883, 1018, 1000, 1130
1460, 240, 927, 381, 1005
1461, 157, 1147, 156, 292
1462, 20, 964, 923, 1086
1463, 1147, 99, 1144, 156
1464, 1175, 724, 725, 596
1465, 68, 62, 69, 924
1466, 228, 939, 272, 1081
1467, 755, 634, 984, 1043
1468, 358, 965, 957, 1132
1469, 1046, 667, 656, 666
1470, 617, 686, 809, 785
1471, 261, 159, 211, 1084
1472, 910, 1102, 953, 1128
1473, 953, 1102, 904, 1128
1474, 902, 647, 741, 842
1475, 308, 433, 5, 963
1476, 182, 995, 242, 1024
1477, 259, 976, 357, 1010
1478, 433, 963, 308, 983
1479, 808, 702, 1069, 1127
1480, 738, 1089, 693, 1103
1481, 79, 976, 908, 981
1482, 436, 923, 380, 1064
1483, 360, 970, 941, 1131
1484, 157, 1144, 103, 156
1485, 468, 940, 1041, 138
1486, 1151, 1158, 279, 319
1487, 106, 943, 1131, 335
1488, 1066, 1073, 986, 689
1489, 168, 1109, 1118, 1010
1490, 158, 249, 209, 960
1491, 41, 640, 42, 901
1492, 467, 44, 970, 1131
1493, 116, 958, 966, 1100
1494, 454, 419, 258, 914
1495, 217, 1106, 295, 343
1496, 441, 971, 919, 1132
1497, 50, 923, 402, 964
1498, 944, 1029, 1027, 878
1499, 599, 1080, 896, 602
1500, 363, 276, 1152, 411
1501, 472, 934, 984, 1068
1502, 906, 1075, 896, 1099
1503, 139, 1045, 137, 1077
1504, 1170, 994, 586, 644
1505, 418, 419, 266, 901
1506, 1066, 1073, 689, 1051
1507, 411, 276, 1152, 291
1508, 944, 1096, 972, 1110
1509, 882, 987, 985, 988
1510, 1031, 20, 1126, 66
1511, 515, 514, 516, 974
1512, 657, 934, 1068, 984
1513, 982, 698, 869, 606
1514, 884, 992, 931, 1044
1515, 900, 885, 1092, 1119
1516, 34, 697, 35, 1111
1517, 69, 68, 924, 1072
1518, 871, 949, 913, 1038
1519, 363, 411, 1152, 1036
1520, 909, 1069, 816, 1089
1521, 290, 919, 441, 1098
1522, 1032, 69, 924, 1072
1523, 1127, 1091, 865, 709
1524, 749, 910, 573, 1128
1525, 435, 983, 1036, 58
1526, 90, 89, 920, 469
1527, 729, 798, 525, 937
1528, 460, 89, 91, 920
1529, 706, 505, 842, 902
1530, 898, 922, 918, 1125
1531, 394, 1034, 94, 310
1532, 1158, 1151, 22, 319
1533, 753, 894, 1059, 1134
1534, 411, 291, 1152, 1036
1535, 78, 908, 1067, 1071
1536, 1087, 1102, 893, 1128
1537, 734, 861, 947, 1122
1538, 163, 1001, 58, 1036
1539, 352, 948, 933, 1067
1540, 129, 997, 383, 1048
1541, 749, 573, 910, 1090
1542, 513, 511, 514, 974
1543, 472, 934, 1068, 787
1544, 24, 1165, 737, 736
1545, 901, 1014, 906, 1035
1546, 916, 1080, 892, 1091
1547, 851, 646, 831, 1020
1548, 417, 983, 447, 1037
1549, 596, 737, 1165, 1175
1550, 531, 526, 953, 1128
1551, 768, 921, 964, 1086
1552, 366, 1004, 1054, 238
1553, 758, 661, 867, 1122
1554, 162, 161, 182, 1131
1555, 686, 868, 680, 785
1556, 549, 942, 730, 1125
1557, 119, 120, 121, 915
1558, 502, 987, 895, 1074
1559, 1151, 1175, 26, 22
1560, 1165, 24, 1151, 736
1561, 417, 409, 181, 1037
1562, 623, 898, 922, 918
1563, 431, 327, 943, 973
1564, 528, 904, 508, 1102
1565, 820, 680, 682, 686
1566, 473, 795, 946, 989
1567, 510, 511, 513, 974
1568, 672, 791, 1017, 1108
1569, 477, 944, 988, 1097
1570, 968, 1002, 907, 1030
1571, 150, 963, 983, 970
1572, 62, 155, 69, 924
1573, 996, 1008, 883, 1130
1574, 481, 934, 787, 963
1575, 38, 286, 54, 1042
1576, 675, 1012, 674, 1108
1577, 15, 62, 968, 1002
1578, 190, 187, 189, 962
1579, 820, 868, 680, 686
1580, 441, 919, 971, 1098
1581, 941, 970, 44, 1131
1582, 58, 1001, 983, 1036
1583, 9, 1035, 906, 1075
1584, 215, 1085, 213, 214
1585, 474, 803, 1015, 1052
1586, 233, 235, 234, 928
1587, 1165, 22, 596, 1175
1588, 590, 582, 994, 999
1589, 973, 245, 246, 1006
1590, 896, 906, 1014, 1035
1591, 746, 1017, 551, 1061
1592, 887, 985, 987, 988
1593, 184, 402, 950, 1031
1594, 799, 587, 1117, 1120
1595, 640, 1093, 41, 601
1596, 215, 1085, 214, 216
1597, 5, 934, 1068, 711
1598, 742, 849, 1170, 595
1599, 527, 1135, 533, 532
1600, 1158, 61, 279, 319
1601, 403, 63, 913, 35
1602, 661, 1125, 773, 748
1603, 755, 984, 934, 1043
1604, 375, 884, 455, 1107
1605, 1153, 746, 797, 1150
1606, 82, 86, 84, 976
1607, 723, 1150, 564, 1153
1608, 953, 512, 1046, 954
1609, 893, 888, 1062, 1039
1610, 892, 1091, 1080, 1095
1611, 893, 888, 1039, 982
1612, 595, 1149, 642, 643
1613, 585, 794, 586, 1020
1614, 917, 1148, 351, 1085
1615, 643, 586, 1149, 794
1616, 990, 1113, 544, 945
1617, 1147, 1010, 85, 1143
1618, 362, 420, 967, 1056
1619, 274, 204, 908, 1019
1620, 219, 283, 282, 917
1621, 403, 975, 913, 1025
1622, 570, 1113, 568, 1061
1623, 879, 913, 1016, 1111
1624, 418, 901, 1035, 1121
1625, 901, 1029, 1027, 1121
1626, 1004, 928, 366, 1054
1627, 871, 913, 1025, 1038
1628, 590, 583, 586, 994
1629, 779, 946, 780, 1016
1630, 906, 1035, 896, 1075
1631, 394, 1034, 310, 274
1632, 936, 954, 903, 1135
1633, 366, 195, 189, 928
1634, 600, 896, 599, 1014
1635, 660, 661, 947, 1078
1636, 545, 1061, 1017, 1113
1637, 743, 974, 909, 1133
1638, 10, 1035, 535, 1039
1639, 1062, 1095, 1087, 893
1640, 395, 935, 943, 1049
1641, 305, 995, 959, 1024
1642, 620, 825, 776, 1062
1643, 288, 463, 959, 1063
1644, 879, 975, 913, 1111
1645, 644, 650, 651, 994
1646, 531, 526, 527, 953
1647, 761, 558, 556, 1145
1648, 275, 364, 208, 1036
1649, 306, 959, 447, 970
1650, 484, 1171, 726, 1070
1651, 693, 892, 604, 1080
1652, 36, 63, 35, 913
1653, 504, 502, 895, 1074
1654, 678, 1171, 774, 724
1655, 790, 632, 816, 1089
1656, 944, 956, 875, 1097
1657, 947, 996, 889, 1028
1658, 365, 905, 129, 1048
1659, 819, 680, 681, 820
1660, 454, 927, 408, 973
1661, 706, 655, 839, 903
1662, 608, 607, 584, 945
1663, 951, 1045, 961, 1077
1664, 194, 900, 1013, 1054
1665, 502, 895, 987, 1009
1666, 674, 1012, 991, 1108
1667, 537, 902, 534, 538
1668, 281, 919, 290, 1032
1669, 202, 891, 341, 920
1670, 251, 1007, 1006, 1033
1671, 568, 1017, 566, 1061
1672, 557, 853, 558, 761
1673, 804, 1026, 762, 1040
1674, 357, 948, 170, 1010
1675, 1171, 677, 678, 726
1676, 1073, 527, 1135, 903
1677, 624, 918, 625, 623
1678, 1039, 10, 1121, 618
1679, 1140, 1144, 1053, 98
1680, 27, 483, 28, 1070
1681, 391, 1006, 243, 1007
1682, 248, 316, 952, 1119
1683, 719, 1159, 645, 794
1684, 544, 945, 541, 990
1685, 874, 1058, 1023, 1077
1686, 29, 921, 668, 1052
1687, 923, 964, 921, 1086
1688, 872, 946, 907, 1016
1689, 750, 972, 641, 1027
1690, 361, 1118, 1109, 1010
1691, 931, 992, 874, 1044
1692, 478, 835, 659, 984
1693, 990, 1113, 945, 570
1694, 837, 755, 634, 984
1695, 245, 973, 1005, 1006
1696, 169, 1005, 299, 1053
1697, 691, 643, 813, 1020
1698, 1004, 1054, 885, 1092
1699, 831, 761, 853, 646
1700, 755, 627, 634, 1043
1701, 1150, 566, 564, 1153
1702, 308, 963, 360, 970
1703, 772, 985, 500, 987
1704, 626, 603, 605, 916
1705, 626, 755, 864, 934
1706, 262, 349, 331, 899
1707, 357, 274, 908, 976
1708, 822, 547, 714, 938
1709, 924, 925, 871, 1072
1710, 102, 101, 1140, 1115
1711, 9, 906, 8, 1075
1712, 159, 209, 210, 917
1713, 885, 1013, 952, 1119
1714, 665, 789, 988, 1066
1715, 802, 991, 674, 1012
1716, 380, 889, 143, 1048
1717, 940, 957, 884, 1004
1718, 861, 18, 1003, 1086
1719, 668, 488, 623, 980
1720, 247, 454, 408, 973
1721, 822, 938, 714, 994
1722, 910, 974, 909, 1090
1723, 350, 931, 1044, 1101
1724, 925, 880, 1082, 1094
1725, 193, 188, 194, 1054
1726, 1100, 120, 118, 119
1727, 766, 761, 1164, 1145
1728, 135, 117, 119, 915
1729, 546, 791, 991, 1113
1730, 255, 415, 393, 1119
1731, 482, 1111, 1008, 1130
1732, 74, 933, 1067, 352
1733, 1144, 98, 99, 96
1734, 66, 950, 1031, 1112
1735, 878, 955, 914, 989
1736, 1157, 579, 567, 580
1737, 1168, 1167, 612, 856
1738, 226, 1025, 207, 1038
1739, 867, 748, 679, 980
1740, 147, 995, 466, 1137
1741, 307, 447, 959, 1037
1742, 436, 50, 379, 923
1743, 201, 939, 374, 1107
1744, 68, 925, 1083, 1129
1745, 1148, 406, 410, 371
1746, 1170, 586, 590, 591
1747, 43, 906, 941, 1049
1748, 483, 668, 28, 921
1749, 665, 629, 789, 1066
1750, 592, 815, 590, 999
1751, 517, 830, 816, 1133
1752, 959, 1037, 288, 1063
1753, 74, 933, 434, 1082
1754, 508, 528, 506, 904
1755, 616, 721, 1168, 856
1756, 13, 1097, 597, 1030
1757, 608, 763, 607, 912
1758, 266, 448, 906, 1049
1759, 693, 1089, 892, 1103
1760, 672, 616, 673, 1108
1761, 586, 583, 585, 994
1762, 46, 963, 787, 1068
1763, 768, 921, 487, 964
1764, 984, 1138, 634, 783
1765, 893, 1102, 762, 1103
1766, 659, 782, 658, 1043
1767, 942, 847, 549, 860
1768, 600, 602, 599, 896
1769, 1062, 1095, 893, 1039
1770, 770, 1000, 1059, 1079
1771, 402, 227, 184, 950
1772, 29, 379, 28, 921
1773, 766, 1145, 1164, 670
1774, 481, 810, 937, 963
1775, 490, 624, 922, 942
1776, 919, 1032, 871, 1072
1777, 661, 748, 867, 898
1778, 740, 980, 739, 1070
1779, 953, 512, 954, 509
1780, 912, 1060, 608, 1134
1781, 51, 901, 1121, 1029
1782, 600, 869, 982, 1014
1783, 142, 153, 152, 1045
1784, 495, 1130, 907, 492
1785, 866, 713, 510, 910
1786, 1168, 1167, 617, 612
1787, 537, 536, 534, 1051
1788, 317, 253, 452, 1013
1789, 328, 935, 327, 973
1790, 675, 674, 1012, 676
1791, 235, 1092, 928, 1104
1792, 154, 152, 158, 960
1793, 890, 1015, 947, 1065
1794, 535, 1035, 759, 1039
1795, 770, 1059, 838, 1079
1796, 593, 761, 1164, 766
1797, 178, 1005, 1053, 1006
1798, 172, 357, 274, 908
1799, 913, 924, 879, 1129
1800, 400, 465, 979, 1076
1801, 879, 883, 1028, 1008
1802, 806, 641, 972, 1110
1803, 973, 245, 408, 247
1804, 606, 600, 869, 982
1805, 960, 978, 870, 1045
1806, 936, 811, 844, 999
1807, 874, 1023, 951, 1077
1808, 728, 1164, 593, 1114
1809, 896, 982, 888, 1014
1810, 360, 304, 970, 1131
1811, 1122, 980, 740, 921
1812, 20, 768, 964, 1086
1813, 593, 761, 556, 1164
1814, 86, 87, 1163, 1139
1815, 693, 892, 1080, 1103
1816, 875, 956, 907, 1030
1817, 90, 92, 469, 1022
1818, 13, 1030, 956, 1097
1819, 580, 579, 664, 1108
1820, 422, 1019, 285, 1050
1821, 701, 781, 916, 1091
1822, 1145, 558, 556, 670
1823, 734, 947, 661, 1122
1824, 195, 928, 366, 1123
1825, 202, 377, 891, 1011
1826, 30, 889, 1052, 996
1827, 771, 890, 649, 708
1828, 677, 676, 675, 1012
1829, 967, 997, 452, 1088
1830, 713, 738, 693, 1103
1831, 551, 671, 672, 1017
1832, 730, 679, 922, 1012
1833, 257, 995, 1007, 242
1834, 892, 916, 1091, 1127
1835, 1139, 397, 89, 87
1836, 73, 388, 1072, 1082
1837, 929, 967, 269, 1088
1838, 202, 891, 920, 981
1839, 534, 536, 532, 1135
1840, 791, 545, 1017, 1113
1841, 1039, 759, 621, 1091
1842, 346, 345, 395, 943
1843, 990, 1113, 570, 1061
1844, 1068, 1162, 984, 48
1845, 1071, 76, 1067, 78
1846, 744, 1017, 991, 1108
1847, 557, 639, 1020, 1047
1848, 40, 41, 432, 1093
1849, 508, 904, 506, 1074
1850, 80, 1011, 981, 1071
1851, 17, 1003, 387, 1028
1852, 893, 888, 982, 1040
1853, 808, 909, 743, 1090
1854, 1175, 737, 1165, 736
1855, 808, 702, 775, 1069
1856, 916, 747, 603, 1099
1857, 877, 993, 952, 997
1858, 73, 76, 74, 1082
1859, 135, 119, 355, 915
1860, 138, 961, 940, 1041
1861, 283, 340, 917, 1022
1862, 23, 22, 596, 1165
1863, 1164, 1145, 556, 670
1864, 355, 135, 915, 1106
1865, 422, 969, 318, 1019
1866, 194, 1013, 237, 1054
1867, 903, 895, 1073, 1074
1868, 707, 1000, 708, 609
1869, 1139, 397, 93, 89
1870, 1140, 289, 165, 329
1871, 439, 964, 402, 1031
1872, 228, 293, 272, 939
1873, 1139, 976, 93, 1163
1874, 326, 455, 330, 1004
1875, 1073, 1135, 527, 532
1876, 888, 1014, 901, 1035
1877, 951, 137, 1045, 1077
1878, 874, 958, 915, 1100
1879, 484, 1171, 1070, 1175
1880, 1159, 814, 812, 813
1881, 124, 122, 334, 931
1882, 217, 1085, 932, 215
1883, 827, 892, 605, 604
1884, 1112, 1141, 270, 313
1885, 1159, 813, 812, 756
1886, 94, 394, 460, 920
1887, 517, 816, 909, 1133
1888, 901, 888, 1035, 1121
1889, 969, 318, 1124, 265
1890, 377, 340, 891, 979
1891, 430, 309, 451, 932
1892, 185, 950, 962, 1112
1893, 524, 954, 953, 1046
1894, 379, 380, 436, 923
1895, 55, 304, 360, 1131
1896, 47, 472, 48, 1068
1897, 584, 754, 805, 911
1898, 917, 932, 876, 1076
1899, 889, 905, 1003, 1028
1900, 20, 923, 964, 1031
1901, 115, 117, 400, 958
1902, 141, 920, 458, 1022
1903, 1006, 252, 251, 246
1904, 898, 918, 1078, 1125
1905, 308, 963, 970, 983
1906, 1158, 26, 1031, 22
1907, 540, 547, 829, 938
1908, 431, 301, 327, 973
1909, 324, 1063, 995, 1137
1910, 43, 810, 44, 941
1911, 778, 946, 779, 1057
1912, 344, 459, 430, 1023
1913, 140, 152, 154, 1045
1914, 932, 210, 212, 1085
1915, 891, 981, 202, 1011
1916, 904, 1087, 731, 1128
1917, 188, 187, 186, 962
1918, 95, 1147, 1010, 85
1919, 31, 792, 32, 996
1920, 917, 351, 1022, 321
1921, 1047, 552, 801, 990
1922, 267, 349, 362, 929
1923, 881, 1019, 969, 1050
1924, 200, 230, 438, 1081
1925, 816, 727, 1133, 830
1926, 481, 864, 787, 934
1927, 748, 1125, 730, 922
1928, 1075, 1039, 759, 1035
1929, 916, 603, 747, 626
1930, 893, 1040, 1026, 1062
1931, 6, 360, 308, 963
1932, 128, 992, 1058, 1107
1933, 126, 931, 201, 1107
1934, 413, 920, 469, 1022
1935, 269, 929, 362, 967
1936, 779, 907, 495, 1057
1937, 582, 938, 578, 994
1938, 80, 908, 78, 1071
1939, 655, 1055, 706, 610
1940, 1062, 1095, 1039, 619
1941, 12, 769, 477, 944
1942, 861, 494, 1086, 1122
1943, 899, 961, 870, 1045
1944, 170, 1010, 948, 1109
1945, 174, 208, 333, 1037
1946, 51, 901, 1029, 419
1947, 163, 1001, 1036, 1116
1948, 622, 972, 946, 1057
1949, 877, 997, 967, 1088
1950, 949, 1038, 871, 1124
1951, 345, 1006, 246, 252
1952, 984, 699, 657, 934
1953, 632, 926, 605, 1089
1954, 38, 795, 989, 1042
1955, 1032, 69, 1072, 222
1956, 1139, 976, 1163, 86
1957, 965, 281, 919, 1132
1958, 624, 763, 648, 918
1959, 70, 925, 388, 1082
1960, 198, 200, 438, 1081
1961, 405, 357, 259, 976
1962, 482, 492, 1111, 1130
1963, 298, 997, 975, 1088
1964, 596, 724, 774, 1171
1965, 130, 122, 120, 931
1966, 1167, 1146, 614, 809
1967, 103, 1140, 100, 1144
1968, 874, 951, 961, 1077
1969, 541, 539, 540, 911
1970, 520, 522, 521, 1046
1971, 519, 974, 516, 520
1972, 888, 982, 896, 1039
1973, 905, 993, 1003, 1028
1974, 798, 781, 525, 1075
1975, 103, 1140, 329, 100
1976, 878, 989, 914, 1093
1977, 1049, 347, 55, 1131
1978, 521, 523, 974, 1046
1979, 861, 1003, 17, 1028
1980, 887, 1026, 1040, 1062
1981, 168, 1147, 1118, 157
1982, 733, 784, 597, 930
1983, 1113, 860, 546, 543
1984, 896, 1014, 888, 1035
1985, 1062, 1095, 619, 1087
1986, 892, 1095, 1080, 1103
1987, 729, 7, 6, 937
1988, 53, 327, 328, 935
1989, 592, 815, 999, 1105
1990, 573, 743, 974, 1090
1991, 694, 762, 982, 1040
1992, 212, 213, 932, 1085
1993, 400, 979, 465, 160
1994, 649, 648, 753, 1134
1995, 100, 99, 103, 1144
1996, 180, 455, 940, 992
1997, 453, 12, 13, 956
1998, 416, 957, 358, 965
1999, 455, 992, 314, 1107
2000, 884, 1004, 957, 1104
2001, 678, 680, 681, 819
2002, 644, 651, 767, 999
2003, 544, 541, 801, 990
2004, 273, 939, 356, 1081
2005, 365, 129, 383, 1048
2006, 525, 7, 937, 1075
2007, 354, 443, 176, 1063
2008, 150, 963, 970, 45
2009, 53, 943, 336, 327
2010, 177, 1053, 1109, 1118
2011, 20, 1126, 1086, 923
2012, 1077, 132, 128, 1058
2013, 680, 682, 681, 820
2014, 417, 983, 1037, 435
2015, 809, 682, 680, 686
2016, 973, 246, 245, 247
2017, 310, 94, 412, 1034
2018, 114, 115, 113, 958
2019, 702, 926, 843, 1069
2020, 544, 1113, 545, 543
2021, 701, 709, 1091, 1127
2022, 53, 943, 327, 935
2023, 1112, 1141, 313, 962
2024, 774, 737, 596, 1171
2025, 248, 993, 387, 1003
2026, 1149, 586, 594, 794
2027, 350, 1100, 118, 278
2028, 359, 966, 971, 1132
2029, 20, 66, 322, 1126
2030, 888, 896, 1035, 1039
2031, 919, 871, 998, 1072
2032, 305, 306, 304, 1024
2033, 1001, 48, 1116, 1068
2034, 1151, 1175, 22, 1165
2035, 274, 310, 285, 1034
2036, 502, 1009, 503, 895
2037, 882, 1009, 1021, 1059
2038, 678, 1171, 726, 1160
2039, 698, 1040, 982, 1110
2040, 933, 172, 203, 1067
2041, 165, 1144, 103, 157
2042, 513, 866, 510, 974
2043, 126, 1058, 931, 1107
2044, 537, 902, 538, 1117
2045, 370, 284, 1148, 371
2046, 931, 1044, 874, 1100
2047, 914, 955, 878, 1029
2048, 1113, 860, 543, 945
2049, 144, 358, 957, 1132
2050, 441, 359, 971, 1132
2051, 712, 510, 910, 1102
2052, 750, 1027, 601, 1093
2053, 588, 689, 1051, 1066
2054, 434, 72, 74, 1082
2055, 734, 861, 486, 947
2056, 31, 143, 30, 996
2057, 217, 218, 294, 932
2058, 763, 912, 608, 1134
2059, 130, 334, 122, 931
2060, 901, 1014, 888, 1027
2061, 630, 631, 660, 1078
2062, 555, 1154, 560, 1114
2063, 353, 174, 333, 1037
2064, 112, 971, 113, 1011
2065, 736, 1175, 737, 475
2066, 129, 33, 429, 997
2067, 479, 598, 43, 906
2068, 829, 822, 639, 938
2069, 385, 264, 316, 952
2070, 219, 1148, 370, 284
2071, 542, 912, 799, 1117
2072, 559, 853, 807, 1020
2073, 700, 926, 701, 1043
2074, 505, 1060, 902, 895
2075, 57, 39, 40, 914
2076, 900, 1092, 255, 1119
2077, 897, 925, 1082, 1094
2078, 235, 372, 939, 233
2079, 345, 247, 246, 973
2080, 873, 971, 966, 1132
2081, 484, 1171, 1175, 475
2082, 881, 969, 899, 1050
2083, 385, 952, 316, 1119
2084, 144, 957, 966, 1132
2085, 361, 1118, 1010, 95
2086, 34, 429, 33, 975
2087, 391, 301, 243, 1006
2088, 68, 925, 70, 1083
2089, 226, 267, 207, 1025
2090, 1148, 92, 410, 406
2091, 1162, 764, 835, 1142
2092, 894, 1021, 1009, 1059
2093, 187, 190, 427, 962
2094, 599, 1080, 602, 603
2095, 301, 1005, 973, 1006
2096, 312, 386, 150, 983
2097, 116, 958, 114, 966
2098, 1075, 1039, 1035, 896
2099, 282, 979, 1076, 917
2100, 762, 692, 982, 1103
2101, 484, 1175, 26, 736
2102, 27, 1175, 26, 484
2103, 50, 436, 402, 923
2104, 1146, 682, 862, 809
2105, 901, 1027, 888, 1121
2106, 1162, 2, 1, 1116
2107, 484, 1175, 736, 475
2108, 557, 639, 807, 1020
2109, 952, 997, 886, 1013
2110, 212, 214, 213, 1085
2111, 932, 212, 210, 211
2112, 965, 919, 281, 1032
2113, 1162, 2, 764, 1
2114, 1078, 1120, 773, 1125
2115, 439, 50, 402, 964
2116, 884, 931, 992, 1107
2117, 1156, 999, 767, 1105
2118, 248, 225, 387, 993
2119, 242, 995, 1007, 1024
2120, 177, 1053, 1005, 1109
2121, 1175, 964, 26, 22
2122, 77, 78, 79, 908
2123, 1033, 466, 1007, 1115
2124, 721, 617, 664, 580
2125, 944, 618, 1121, 11
2126, 904, 1073, 986, 1074
2127, 986, 1073, 895, 1074
2128, 570, 568, 1113, 826
2129, 1162, 1, 49, 1116
2130, 287, 57, 381, 927
2131, 1162, 764, 1142, 628
2132, 126, 1107, 128, 1058
2133, 640, 1014, 901, 1027
2134, 415, 393, 1119, 1126
2135, 28, 668, 29, 921
2136, 441, 919, 281, 1132
2137, 737, 1160, 832, 475
2138, 874, 961, 940, 1077
2139, 287, 933, 203, 1094
2140, 441, 290, 281, 919
2141, 169, 1053, 166, 1118
2142, 387, 993, 16, 1028
2143, 463, 315, 959, 1063
2144, 661, 1125, 748, 898
2145, 412, 280, 249, 1136
2146, 882, 1009, 987, 1066
2147, 640, 1093, 601, 1027
2148, 495, 1130, 492, 493
2149, 1143, 292, 296, 297
2150, 564, 566, 567, 1153
2151, 950, 1064, 900, 1126
2152, 181, 333, 414, 1036
2153, 731, 986, 904, 1073
2154, 854, 14, 13, 1030
2155, 1047, 552, 990, 1114
2156, 203, 1124, 323, 1094
2157, 836, 681, 1174, 1160
2158, 936, 811, 999, 954
2159, 331, 969, 422, 1050
2160, 881, 1011, 971, 1098
2161, 702, 926, 1069, 1127
2162, 432, 41, 53, 935
2163, 807, 853, 557, 1020
2164, 504, 505, 706, 895
2165, 506, 722, 987, 1026
2166, 332, 294, 1076, 1106
2167, 958, 979, 876, 1076
2168, 1039, 621, 759, 535
2169, 450, 1063, 324, 1137
2170, 300, 381, 328, 973
2171, 891, 1022, 920, 1136
2172, 139, 138, 961, 1077
2173, 262, 421, 349, 899
2174, 424, 928, 231, 234
2175, 257, 1115, 1007, 1137
2176, 489, 491, 662, 1012
2177, 1148, 221, 371, 410
2178, 900, 1126, 886, 1119
2179, 893, 1095, 910, 1103
2180, 1032, 69, 222, 155
2181, 959, 354, 443, 307
2182, 761, 1166, 720, 831
2183, 726, 832, 1160, 475
2184, 606, 602, 600, 982
2185, 840, 757, 597, 930
2186, 308, 970, 447, 983
2187, 95, 1147, 85, 96
2188, 335, 1024, 943, 1131
2189, 770, 1000, 708, 1059
2190, 692, 1080, 982, 1103
2191, 477, 850, 12, 1097
2192, 116, 966, 1044, 1100
2193, 1164, 1114, 728, 1154
2194, 502, 506, 987, 1074
2195, 361, 1118, 95, 177
2196, 852, 936, 654, 999
2197, 883, 996, 947, 1028
2198, 1159, 813, 756, 794
2199, 60, 291, 337, 1036
2200, 117, 119, 915, 1100
2201, 796, 750, 473, 946
2202, 819, 1160, 678, 726
2203, 124, 334, 201, 931
2204, 805, 754, 647, 911
2205, 1026, 1062, 986, 1087
2206, 987, 1009, 895, 1066
2207, 768, 921, 1086, 1122
2208, 87, 86, 88, 1139
2209, 1175, 964, 22, 725
2210, 617, 1146, 809, 686
2211, 464, 202, 341, 920
2212, 524, 953, 523, 1046
2213, 576, 779, 780, 1016
2214, 171, 170, 948, 1109
2215, 168, 1109, 1010, 170
2216, 1038, 205, 223, 949
2217, 448, 395, 55, 1049
2218, 43, 941, 106, 1049
2219, 130, 120, 350, 931
2220, 42, 640, 479, 1014
2221, 426, 998, 73, 1072
2222, 224, 965, 281, 1032
2223, 258, 75, 454, 927
2224, 875, 907, 1018, 1030
2225, 126, 128, 1107, 131
2226, 1143, 297, 398, 373
2227, 741, 902, 505, 1060
2228, 890, 898, 1015, 918
2229, 322, 19, 20, 1126
2230, 168, 1109, 170, 169
2231, 487, 740, 739, 1070
2232, 1071, 76, 78, 426
2233, 800, 942, 490, 991
2234, 740, 1122, 921, 768
2235, 1006, 1007, 391, 1033
2236, 840, 930, 597, 1097
2237, 332, 135, 294, 1106
2238, 848, 898, 623, 918
2239, 235, 1092, 1104, 236
2240, 241, 983, 1037, 312
2241, 904, 986, 731, 1087
2242, 784, 733, 486, 1065
2243, 873, 961, 899, 1041
2244, 991, 662, 1108, 1012
2245, 924, 871, 1032, 1072
2246, 1151, 26, 25, 1158
2247, 605, 632, 627, 926
2248, 68, 1083, 968, 1129
2249, 549, 546, 730, 942
2250, 444, 1101, 1044, 1104
2251, 928, 256, 234, 424
2252, 184, 1031, 950, 1112
2253, 703, 1046, 520, 666
2254, 375, 455, 314, 1107
2255, 77, 78, 908, 1067
2256, 1148, 221, 370, 371
2257, 690, 1166, 720, 761
2258, 149, 1137, 1063, 148
2259, 590, 654, 582, 999
2260, 469, 413, 91, 920
2261, 819, 1160, 681, 678
2262, 411, 363, 275, 1036
2263, 481, 45, 810, 963
2264, 894, 1066, 1009, 1021
2265, 920, 202, 348, 464
2266, 754, 1055, 581, 647
2267, 900, 1013, 886, 1064
2268, 799, 542, 847, 912
2269, 65, 316, 248, 1119
2270, 5, 934, 711, 476
2271, 138, 940, 961, 1077
2272, 644, 767, 849, 999
2273, 344, 456, 459, 1106
2274, 377, 113, 160, 979
2275, 282, 283, 340, 917
2276, 917, 321, 1136, 209
2277, 243, 431, 335, 943
2278, 1158, 1031, 260, 22
2279, 853, 1166, 715, 558
2280, 347, 943, 252, 1024
2281, 157, 1053, 166, 165
2282, 366, 1004, 238, 330
2283, 150, 963, 45, 46
2284, 1005, 1006, 299, 1053
2285, 1141, 424, 313, 962
2286, 331, 349, 226, 969
2287, 318, 422, 265, 969
2288, 544, 1113, 543, 945
2289, 951, 960, 870, 1045
2290, 485, 484, 726, 1070
2291, 30, 1015, 996, 1052
2292, 644, 586, 1149, 643
2293, 1051, 1060, 902, 1117
2294, 1001, 163, 3, 1116
2295, 841, 548, 1046, 1105
2296, 1151, 26, 1158, 22
2297, 495, 907, 1018, 1057
2298, 546, 545, 791, 1113
2299, 740, 487, 768, 921
2300, 558, 853, 1166, 761
2301, 1148, 92, 351, 410
2302, 517, 974, 515, 1133
2303, 241, 983, 312, 244
2304, 694, 982, 698, 1040
2305, 775, 1133, 751, 529
2306, 455, 326, 180, 940
2307, 885, 1013, 900, 1054
2308, 206, 205, 440, 1038
2309, 790, 633, 632, 926
2310, 303, 466, 995, 1007
2311, 429, 975, 298, 997
2312, 462, 270, 191, 1112
2313, 746, 551, 550, 1061
2314, 525, 8, 7, 1075
2315, 721, 617, 580, 1168
2316, 536, 689, 846, 1073
2317, 10, 535, 618, 1039
2318, 761, 853, 1166, 831
2319, 163, 1001, 428, 58
2320, 523, 953, 526, 1128
2321, 1146, 682, 809, 686
2322, 699, 798, 476, 934
2323, 748, 773, 857, 1125
2324, 45, 467, 44, 970
2325, 106, 943, 335, 336
2326, 90, 406, 92, 1022
2327, 51, 901, 419, 418
2328, 328, 381, 57, 927
2329, 804, 722, 1026, 1040
2330, 873, 940, 961, 1041
2331, 978, 891, 1011, 1034
2332, 355, 121, 404, 915
2333, 348, 976, 79, 981
2334, 655, 1055, 610, 936
2335, 377, 340, 202, 891
2336, 504, 903, 507, 1074
2337, 995, 1063, 315, 1137
2338, 20, 1086, 1126, 19
2339, 267, 1025, 929, 1088
2340, 560, 746, 1150, 797
2341, 239, 1081, 195, 1123
2342, 435, 983, 58, 52
2343, 616, 721, 580, 1168
2344, 941, 106, 1049, 1131
2345, 723, 1150, 1153, 797
2346, 729, 525, 7, 937
2347, 829, 938, 639, 1047
2348, 513, 514, 515, 974
2349, 1046, 667, 666, 703
2350, 908, 981, 1034, 1071
2351, 956, 470, 1083, 14
2352, 707, 609, 792, 996
2353, 282, 979, 917, 340
2354, 406, 284, 1148, 1022
2355, 178, 1005, 1006, 245
2356, 495, 779, 492, 907
2357, 382, 955, 1029, 453
2358, 136, 1023, 951, 1084
2359, 82, 348, 86, 976
2360, 744, 745, 991, 1017
2361, 741, 842, 505, 902
2362, 956, 968, 907, 1030
2363, 875, 988, 944, 1097
2364, 819, 1160, 726, 832
2365, 771, 890, 708, 1015
2366, 413, 1136, 94, 920
2367, 123, 125, 134, 915
2368, 794, 594, 1159, 645
2369, 358, 281, 965, 1132
2370, 147, 466, 1115, 1137
2371, 33, 129, 32, 905
2372, 5, 934, 476, 963
2373, 875, 1018, 930, 1030
2374, 901, 1029, 914, 1093
2375, 893, 1062, 1026, 1087
2376, 1153, 746, 1150, 566
2377, 1169, 1031, 1112, 260
2378, 623, 848, 803, 898
2379, 149, 1137, 148, 109
2380, 285, 1034, 302, 1050
2381, 251, 1006, 178, 1033
2382, 126, 125, 931, 1058
2383, 1148, 92, 406, 1022
2384, 13, 597, 1097, 850
2385, 1156, 999, 1105, 592
2386, 101, 1033, 1140, 1115
2387, 90, 141, 406, 1022
2388, 750, 806, 641, 972
2389, 556, 555, 1164, 670
2390, 889, 905, 886, 1003
2391, 156, 297, 1147, 373
2392, 565, 568, 566, 1061
2393, 517, 866, 513, 974
2394, 701, 926, 702, 1127
2395, 578, 938, 575, 1047
2396, 274, 204, 172, 908
2397, 698, 694, 606, 982
2398, 678, 1171, 1160, 774
2399, 182, 463, 315, 959
2400, 697, 824, 35, 1016
2401, 740, 1122, 768, 758
2402, 473, 795, 780, 946
2403, 981, 1011, 891, 1034
2404, 954, 548, 1105, 1046
2405, 703, 1105, 704, 841
2406, 599, 598, 479, 1099
2407, 123, 134, 404, 915
2408, 47, 1001, 46, 1068
2409, 509, 510, 508, 953
2410, 191, 64, 462, 1112
2411, 68, 388, 925, 1072
2412, 957, 873, 966, 1132
2413, 716, 756, 642, 1159
2414, 808, 743, 710, 1090
2415, 361, 948, 81, 1010
2416, 958, 116, 117, 1100
2417, 194, 253, 237, 1013
2418, 743, 1133, 521, 974
2419, 1159, 814, 813, 719
2420, 259, 357, 170, 1010
2421, 975, 997, 877, 1088
2422, 84, 87, 1163, 86
2423, 599, 1080, 603, 1099
2424, 592, 590, 591, 1170
2425, 317, 967, 420, 1056
2426, 1141, 424, 962, 977
2427, 522, 703, 841, 1046
2428, 1001, 48, 1068, 47
2429, 593, 1047, 574, 1114
2430, 716, 812, 756, 1159
2431, 898, 918, 890, 1078
2432, 163, 1152, 56, 1116
2433, 802, 674, 676, 1012
2434, 799, 912, 847, 1120
2435, 23, 24, 1151, 1165
2436, 770, 669, 1000, 1079
2437, 277, 56, 1152, 1116
2438, 958, 117, 116, 115
2439, 355, 119, 121, 915
2440, 775, 1133, 529, 808
2441, 957, 965, 873, 1132
2442, 594, 642, 1149, 1159
2443, 786, 608, 1060, 1134
2444, 723, 1150, 797, 562
2445, 29, 668, 803, 1052
2446, 267, 929, 269, 1088
2447, 900, 886, 1126, 1064
2448, 419, 395, 266, 935
2449, 240, 1005, 169, 1109
2450, 167, 1140, 289, 165
2451, 326, 940, 1004, 1056
2452, 43, 42, 906, 1049
2453, 85, 1147, 1143, 373
2454, 776, 618, 944, 769
2455, 778, 622, 796, 946
2456, 559, 814, 831, 719
2457, 80, 908, 1071, 981
2458, 230, 977, 438, 1081
2459, 712, 910, 713, 1103
2460, 1006, 1033, 167, 1053
2461, 294, 218, 332, 1076
2462, 764, 818, 1142, 628
2463, 728, 1164, 766, 593
2464, 287, 240, 171, 933
2465, 1026, 986, 1062, 887
2466, 984, 699, 934, 1043
2467, 953, 512, 509, 511
2468, 73, 70, 388, 1082
2469, 703, 520, 1046, 522
2470, 907, 875, 1018, 1057
2471, 622, 946, 778, 1057
2472, 471, 215, 217, 932
2473, 740, 1122, 758, 867
2474, 794, 594, 1149, 1159
2475, 930, 988, 875, 1097
2476, 820, 1160, 819, 832
2477, 1033, 466, 1115, 311
2478, 546, 991, 942, 1113
2479, 486, 861, 17, 1028
2480, 920, 1022, 413, 1136
2481, 511, 510, 509, 953
2482, 66, 1031, 260, 1112
2483, 1159, 813, 794, 719
2484, 404, 355, 915, 1106
2485, 1036, 363, 364, 414
2486, 527, 532, 531, 1073
2487, 781, 798, 701, 916
2488, 874, 915, 1023, 1058
2489, 285, 302, 1034, 310
2490, 634, 1138, 984, 1043
2491, 432, 53, 328, 935
2492, 472, 705, 48, 984
2493, 1150, 560, 562, 1154
2494, 588, 1021, 629, 1066
2495, 773, 1120, 847, 1125
2496, 201, 293, 356, 939
2497, 291, 320, 277, 1116
2498, 723, 564, 567, 1153
2499, 134, 404, 915, 1106
2500, 919, 998, 881, 1098
2501, 352, 77, 81, 948
2502, 660, 947, 486, 1065
2503, 178, 1005, 245, 177
2504, 568, 1017, 1061, 1113
2505, 484, 1171, 475, 726
2506, 64, 1031, 184, 1112
2507, 799, 1117, 912, 1120
2508, 1151, 22, 23, 1165
2509, 346, 419, 454, 935
2510, 361, 948, 1010, 1109
2511, 82, 948, 81, 79
2512, 1169, 1031, 64, 1112
2513, 59, 1169, 1158, 1031
2514, 144, 116, 966, 1044
2515, 985, 496, 499, 1079
2516, 441, 971, 112, 1098
2517, 358, 281, 224, 965
2518, 658, 478, 659, 984
2519, 582, 938, 936, 1055
2520, 106, 943, 336, 1049
2521, 1170, 586, 591, 1149
2522, 937, 1075, 906, 1099
2523, 340, 341, 202, 891
2524, 22, 260, 21, 1031
2525, 301, 1005, 1006, 299
2526, 984, 699, 1043, 658
2527, 578, 575, 577, 1047
2528, 217, 1085, 215, 216
2529, 363, 1152, 164, 1036
2530, 959, 354, 307, 1037
2531, 235, 1092, 236, 234
2532, 571, 990, 574, 1047
2533, 769, 12, 11, 944
2534, 141, 284, 406, 1022
2535, 876, 960, 951, 1084
2536, 572, 622, 497, 972
2537, 444, 1044, 338, 1104
2538, 910, 1095, 1090, 1103
2539, 1036, 364, 363, 275
2540, 326, 446, 940, 1056
2541, 144, 966, 957, 1044
2542, 622, 497, 972, 1057
2543, 734, 660, 661, 947
2544, 737, 774, 1160, 1171
2545, 813, 814, 559, 719
2546, 149, 1137, 109, 179
2547, 510, 713, 712, 910
2548, 148, 1063, 450, 1137
2549, 877, 967, 929, 1088
2550, 125, 127, 1023, 1058
2551, 900, 886, 1013, 1119
2552, 889, 996, 947, 1052
2553, 26, 439, 59, 1031
2554, 1159, 814, 719, 1173
2555, 179, 315, 1063, 1137
2556, 183, 1023, 136, 1084
2557, 442, 1107, 939, 1123
2558, 954, 548, 1046, 524
2559, 243, 943, 335, 1024
2560, 454, 247, 346, 973
2561, 930, 733, 630, 757
2562, 555, 560, 553, 1114
2563, 700, 702, 701, 926
2564, 269, 362, 420, 967
2565, 912, 894, 1060, 1134
2566, 788, 750, 601, 1093
2567, 126, 201, 374, 1107
2568, 362, 146, 420, 1056
2569, 701, 709, 781, 1091
2570, 57, 40, 432, 914
2571, 538, 911, 539, 1117
2572, 679, 676, 677, 1012
2573, 902, 647, 842, 1055
2574, 95, 83, 85, 1010
2575, 411, 337, 291, 1036
2576, 76, 73, 426, 998
2577, 502, 503, 504, 895
2578, 947, 1052, 898, 1122
2579, 368, 950, 186, 227
2580, 150, 963, 46, 983
2581, 947, 1015, 898, 1052
2582, 182, 242, 162, 1024
2583, 666, 514, 656, 1046
2584, 1147, 96, 373, 85
2585, 754, 1055, 647, 911
2586, 986, 987, 887, 1026
2587, 1123, 273, 1081, 939
2588, 914, 1029, 878, 1093
2589, 217, 343, 471, 932
2590, 476, 6, 5, 963
2591, 149, 1137, 179, 1063
2592, 552, 544, 990, 1061
2593, 315, 384, 995, 1137
2594, 770, 838, 669, 1079
2595, 542, 541, 543, 945
2596, 490, 922, 488, 1012
2597, 743, 521, 1133, 529
2598, 600, 599, 479, 1014
2599, 260, 192, 1158, 319
2600, 615, 616, 1157, 613
2601, 747, 937, 598, 1099
2602, 592, 760, 815, 1105
2603, 712, 1102, 910, 1103
2604, 873, 940, 1041, 1056
2605, 80, 111, 1011, 1071
2606, 897, 1082, 933, 1094
2607, 933, 1082, 880, 1094
2608, 171, 169, 170, 1109
2609, 96, 99, 1144, 1147
2610, 302, 1034, 978, 1050
2611, 16, 1002, 784, 1028
2612, 353, 333, 409, 1037
2613, 538, 540, 539, 911
2614, 894, 912, 918, 1134
2615, 669, 1018, 1000, 1079
2616, 203, 323, 1124, 390
2617, 921, 898, 1052, 1122
2618, 587, 687, 589, 1120
2619, 791, 674, 991, 1108
2620, 359, 966, 114, 971
2621, 1038, 223, 205, 440
2622, 524, 527, 526, 953
2623, 827, 693, 738, 1089
2624, 361, 1118, 177, 1109
2625, 426, 1071, 998, 1098
2626, 306, 360, 304, 970
2627, 242, 1007, 243, 1024
2628, 485, 980, 483, 1070
2629, 1143, 292, 297, 1147
2630, 852, 936, 999, 954
2631, 655, 852, 839, 954
2632, 853, 559, 715, 1166
2633, 918, 1120, 1078, 1125
2634, 562, 560, 1150, 797
2635, 175, 208, 174, 1037
2636, 1166, 1155, 715, 793
2637, 244, 983, 46, 1001
2638, 288, 463, 386, 959
2639, 746, 550, 553, 1061
2640, 199, 273, 356, 1081
2641, 185, 950, 1112, 184
2642, 900, 885, 1054, 1092
2643, 124, 126, 125, 931
2644, 702, 700, 843, 926
2645, 1153, 579, 567, 1157
2646, 874, 992, 931, 1058
2647, 557, 638, 1114, 554
2648, 1153, 1017, 566, 579
2649, 1123, 273, 939, 442
2650, 1051, 1060, 894, 895
2651, 712, 508, 510, 1102
2652, 916, 1075, 937, 1099
2653, 1123, 273, 442, 239
2654, 1090, 1095, 892, 1103
2655, 838, 530, 1009, 1059
2656, 222, 1032, 290, 1072
2657, 925, 872, 1083, 1129
2658, 546, 543, 545, 1113
2659, 387, 155, 62, 993
2660, 412, 978, 302, 1034
2661, 375, 1107, 442, 1123
2662, 587, 1051, 537, 1117
2663, 1001, 3, 163, 428
2664, 174, 173, 175, 1037
2665, 315, 995, 959, 1063
2666, 430, 1023, 183, 1084
2667, 689, 986, 731, 1073
2668, 441, 359, 112, 971
2669, 944, 618, 11, 769
2670, 393, 950, 339, 962
2671, 282, 979, 340, 465
2672, 762, 1026, 528, 1102
2673, 1158, 26, 25, 59
2674, 1127, 1069, 1089, 926
2675, 870, 961, 951, 1045
2676, 211, 451, 309, 932
2677, 123, 404, 121, 915
2678, 949, 880, 1094, 1124
2679, 290, 998, 426, 1072
2680, 114, 116, 115, 958
2681, 69, 388, 68, 1072
2682, 884, 1044, 931, 1101
2683, 42, 479, 43, 906
2684, 225, 155, 387, 993
2685, 251, 246, 178, 1006
2686, 931, 1058, 992, 1107
2687, 288, 959, 386, 1037
2688, 748, 730, 1125, 857
2689, 565, 1154, 1150, 563
2690, 722, 772, 500, 987
2691, 39, 286, 38, 989
2692, 81, 361, 352, 948
2693, 341, 458, 920, 1022
2694, 474, 1015, 30, 1052
2695, 344, 343, 456, 1106
2696, 495, 1130, 493, 1018
2697, 185, 950, 184, 186
2698, 459, 456, 134, 1106
2699, 1047, 552, 1114, 638
2700, 340, 283, 341, 1022
2701, 80, 202, 981, 1011
2702, 971, 1011, 112, 1098
2703, 1033, 466, 311, 251
2704, 1164, 555, 1154, 561
2705, 182, 959, 315, 995
2706, 578, 585, 994, 1020
2707, 733, 597, 757, 930
2708, 461, 272, 293, 939
2709, 552, 1061, 990, 1114
2710, 1042, 1129, 1016, 872
2711, 916, 1091, 1075, 1099
2712, 106, 43, 44, 941
2713, 352, 948, 361, 1109
2714, 949, 1094, 223, 1124
2715, 266, 395, 448, 1049
2716, 763, 800, 607, 942
2717, 236, 416, 1092, 1104
2718, 854, 784, 1002, 1030
2719, 792, 482, 1008, 1130
2720, 20, 964, 21, 1031
2721, 303, 995, 305, 1024
2722, 580, 1157, 616, 1168
2723, 679, 740, 867, 980
2724, 624, 918, 648, 625
2725, 421, 142, 139, 1045
2726, 372, 939, 461, 1101
2727, 88, 376, 141, 920
2728, 702, 843, 775, 1069
2729, 1157, 579, 580, 616
2730, 147, 324, 995, 1137
2731, 910, 1102, 893, 1103
2732, 800, 607, 942, 1113
2733, 3, 1162, 1116, 2
2734, 652, 749, 573, 1128
2735, 982, 1040, 888, 1110
2736, 274, 285, 204, 1019
2737, 553, 1061, 552, 1114
2738, 705, 49, 1162, 628
2739, 171, 240, 169, 1109
2740, 185, 962, 427, 1112
2741, 652, 731, 1087, 1128
2742, 861, 494, 18, 1086
2743, 20, 768, 487, 964
2744, 536, 588, 689, 1051
2745, 894, 918, 912, 1120
2746, 742, 1156, 845, 592
2747, 490, 800, 624, 942
2748, 298, 452, 997, 1088
2749, 426, 110, 1071, 1098
2750, 363, 164, 414, 1036
2751, 257, 1033, 1007, 1115
2752, 301, 1005, 299, 300
2753, 874, 966, 958, 1100
2754, 269, 267, 362, 929
2755, 288, 401, 463, 1063
2756, 77, 948, 352, 1067
2757, 111, 113, 377, 1011
2758, 493, 1000, 1018, 1130
2759, 173, 401, 288, 1063
2760, 502, 987, 501, 1009
2761, 883, 1000, 930, 1065
2762, 199, 356, 228, 1081
2763, 824, 1016, 576, 1042
2764, 8, 9, 266, 906
2765, 1056, 362, 468, 1041
2766, 283, 1148, 219, 284
2767, 325, 317, 420, 1056
2768, 1068, 1162, 48, 1116
2769, 3, 1001, 1116, 1068
2770, 812, 1173, 718, 814
2771, 619, 1087, 620, 1062
2772, 902, 1060, 1051, 895
2773, 1011, 1034, 981, 1071
2774, 503, 1009, 688, 895
2775, 634, 1138, 635, 783
2776, 789, 840, 477, 1097
2777, 621, 1039, 1091, 1095
2778, 575, 571, 574, 1047
2779, 665, 986, 689, 1066
2780, 111, 112, 113, 1011
2781, 829, 638, 801, 1047
2782, 338, 1044, 957, 1104
2783, 1123, 273, 239, 1081
2784, 32, 129, 365, 905
2785, 282, 979, 465, 1076
2786, 77, 76, 78, 1067
2787, 299, 1006, 167, 1053
2788, 413, 94, 1136, 280
2789, 1018, 882, 1000, 1079
2790, 227, 436, 380, 1064
2791, 144, 957, 338, 1044
2792, 886, 1064, 923, 1126
2793, 303, 1007, 995, 1024
2794, 667, 1156, 845, 704
2795, 345, 346, 247, 973
2796, 36, 824, 576, 1042
2797, 679, 748, 730, 922
2798, 164, 163, 445, 1036
2799, 866, 517, 738, 909
2800, 786, 763, 608, 1134
2801, 575, 581, 754, 938
2802, 778, 780, 779, 946
2803, 738, 909, 816, 1089
2804, 1042, 1129, 872, 925
2805, 223, 949, 54, 1094
2806, 366, 1004, 330, 1123
2807, 7, 448, 55, 941
2808, 315, 179, 384, 1137
2809, 1156, 704, 767, 849
2810, 1161, 820, 765, 821
2811, 1075, 1091, 896, 1099
2812, 667, 1156, 704, 1105
2813, 169, 299, 166, 1053
2814, 872, 956, 955, 1083
2815, 864, 755, 787, 934
2816, 704, 1156, 767, 1105
2817, 694, 804, 762, 1040
2818, 669, 493, 1000, 1018
2819, 46, 787, 47, 1068
2820, 185, 950, 186, 962
2821, 291, 60, 320, 1116
2822, 852, 954, 999, 1105
2823, 248, 316, 225, 952
2824, 433, 1001, 4, 1068
2825, 869, 1014, 640, 1027
2826, 1154, 565, 728, 563
2827, 735, 653, 844, 936
2828, 800, 490, 663, 991
2829, 716, 645, 1173, 1159
2830, 105, 1115, 399, 1137
2831, 1155, 1173, 717, 719
2832, 984, 699, 658, 657
2833, 159, 158, 209, 960
2834, 568, 1113, 745, 1017
2835, 1167, 809, 614, 721
2836, 244, 983, 1001, 1036
2837, 227, 380, 396, 1064
2838, 30, 707, 996, 1015
2839, 523, 573, 743, 974
2840, 779, 1016, 697, 1111
2841, 738, 517, 816, 909
2842, 1143, 976, 1163, 296
2843, 553, 550, 552, 1061
2844, 889, 1052, 947, 1122
2845, 810, 747, 481, 937
2846, 1148, 351, 1085, 221
2847, 682, 1172, 1146, 862
2848, 770, 708, 649, 1059
2849, 63, 207, 1025, 1038
2850, 521, 522, 523, 1046
2851, 507, 706, 839, 903
2852, 610, 582, 654, 936
2853, 689, 731, 846, 1073
2854, 933, 1067, 880, 1082
2855, 184, 227, 186, 950
2856, 705, 837, 783, 984
2857, 715, 1166, 814, 1155
2858, 307, 417, 447, 1037
2859, 942, 991, 800, 1113
2860, 1127, 1089, 1069, 909
2861, 996, 1015, 947, 1052
2862, 140, 367, 137, 951
2863, 283, 1148, 284, 1022
2864, 1033, 466, 251, 1007
2865, 62, 16, 387, 993
2866, 168, 1147, 157, 292
2867, 350, 130, 931, 1101
2868, 638, 554, 552, 1114
2869, 652, 531, 731, 1128
2870, 195, 196, 977, 1081
2871, 359, 441, 281, 1132
2872, 56, 164, 276, 1152
2873, 517, 515, 974, 513
2874, 852, 999, 815, 1105
2875, 393, 339, 256, 962
2876, 863, 718, 1155, 814
2877, 26, 27, 439, 964
2878, 39, 989, 788, 1093
2879, 804, 752, 722, 1040
2880, 101, 1033, 1115, 311
2881, 68, 388, 70, 925
2882, 267, 268, 1025, 1088
2883, 589, 631, 630, 1021
2884, 619, 620, 1087, 855
2885, 17, 387, 16, 1028
2886, 468, 446, 146, 1056
2887, 721, 614, 1167, 856
2888, 552, 550, 544, 1061
2889, 889, 921, 1052, 1122
2890, 300, 240, 381, 1005
2891, 265, 969, 226, 1038
2892, 706, 842, 610, 1055
2893, 302, 378, 153, 978
2894, 1047, 552, 638, 801
2895, 813, 559, 807, 1020
2896, 546, 549, 860, 942
2897, 101, 1033, 311, 369
2898, 266, 448, 8, 906
2899, 504, 903, 1074, 895
2900, 921, 889, 1086, 1122
2901, 440, 223, 265, 1038
2902, 206, 63, 205, 1038
2903, 583, 590, 582, 994
2904, 51, 901, 418, 1121
2905, 823, 566, 568, 1017
2906, 1155, 1173, 718, 717
2907, 744, 745, 663, 991
2908, 536, 846, 532, 1073
2909, 385, 255, 1092, 1119
2910, 804, 528, 762, 1026
2911, 140, 951, 137, 1045
2912, 139, 137, 138, 1077
2913, 872, 968, 956, 1083
2914, 556, 555, 554, 1114
2915, 772, 498, 985, 1096
2916, 985, 499, 496, 498
2917, 669, 496, 1018, 1079
2918, 512, 1046, 954, 1105
2919, 201, 126, 124, 931
2920, 480, 1008, 482, 1111
2921, 831, 1155, 793, 719
2922, 316, 264, 225, 952
2923, 1149, 586, 591, 594
2924, 388, 426, 73, 1072
2925, 509, 839, 512, 954
2926, 635, 1138, 634, 1043
2927, 695, 1133, 1069, 727
2928, 699, 476, 711, 934
2929, 367, 136, 951, 1084
2930, 376, 458, 141, 920
2931, 895, 986, 987, 1066
2932, 144, 358, 416, 957
2933, 574, 1047, 990, 1114
2934, 570, 584, 607, 945
2935, 46, 481, 787, 963
2936, 217, 1085, 216, 218
2937, 302, 978, 153, 1050
2938, 675, 673, 828, 1108
2939, 583, 578, 585, 994
2940, 547, 822, 829, 938
2941, 237, 1004, 238, 1054
2942, 80, 111, 202, 1011
2943, 763, 624, 800, 942
2944, 59, 61, 25, 1158
2945, 762, 692, 694, 982
2946, 54, 949, 205, 1042
2947, 715, 863, 1155, 814
2948, 570, 569, 990, 1061
2949, 472, 47, 787, 1068
2950, 627, 632, 633, 926
2951, 215, 220, 213, 932
2952, 125, 127, 459, 1023
2953, 147, 450, 324, 1137
2954, 563, 1154, 562, 561
2955, 831, 814, 1155, 719
2956, 1160, 832, 836, 737
2957, 1140, 107, 102, 1115
2958, 202, 111, 377, 1011
2959, 543, 541, 544, 945
2960, 6, 308, 5, 963
2961, 269, 967, 452, 1088
2962, 144, 966, 359, 1132
2963, 196, 197, 198, 1081
2964, 565, 569, 1061, 1114
2965, 695, 1133, 727, 518
2966, 715, 814, 1166, 559
2967, 725, 964, 487, 1070
2968, 103, 1140, 1144, 165
2969, 930, 1030, 597, 1097
2970, 730, 676, 679, 1012
2971, 306, 447, 308, 970
2972, 649, 625, 648, 918
2973, 917, 321, 209, 210
2974, 175, 173, 288, 1037
2975, 250, 177, 1005, 1109
2976, 524, 653, 527, 954
2977, 111, 112, 1011, 1098
2978, 774, 678, 681, 1160
2979, 74, 933, 352, 434
2980, 799, 587, 537, 1117
2981, 498, 499, 500, 985
2982, 241, 275, 208, 1036
2983, 268, 975, 1025, 1088
2984, 203, 287, 171, 933
2985, 598, 747, 810, 937
2986, 1044, 444, 350, 1101
2987, 217, 1085, 218, 932
2988, 347, 395, 345, 943
2989, 744, 991, 662, 1108
2990, 851, 858, 646, 1020
2991, 563, 1164, 766, 728
2992, 264, 416, 358, 965
2993, 629, 588, 589, 1021
2994, 778, 779, 495, 1057
2995, 68, 15, 62, 968
2996, 530, 688, 503, 1009
2997, 211, 212, 213, 932
2998, 692, 602, 606, 982
2999, 959, 995, 305, 1063
3000, 725, 21, 487, 964
3001, 374, 201, 356, 939
3002, 1164, 1114, 1154, 555
3003, 672, 791, 551, 1017
3004, 1011, 1071, 111, 1098
3005, 523, 526, 573, 1128
3006, 816, 727, 790, 1069
3007, 791, 672, 674, 1108
3008, 271, 1083, 955, 453
3009, 635, 1138, 817, 783
3010, 241, 208, 175, 1037
3011, 92, 413, 469, 1022
3012, 734, 661, 758, 1122
3013, 564, 1150, 562, 563
3014, 1144, 1140, 100, 98
3015, 492, 779, 697, 1111
3016, 220, 343, 344, 932
3017, 445, 414, 164, 1036
3018, 235, 1092, 234, 928
3019, 1147, 1010, 1143, 292
3020, 138, 180, 940, 1077
3021, 369, 1033, 178, 1053
3022, 298, 975, 268, 1088
3023, 170, 357, 172, 948
3024, 252, 1007, 303, 1024
3025, 745, 991, 1017, 1113
3026, 665, 986, 1066, 988
3027, 765, 820, 682, 686
3028, 735, 653, 936, 1135
3029, 339, 962, 950, 1112
3030, 117, 118, 119, 1100
3031, 1056, 468, 362, 146
3032, 167, 1006, 391, 1033
3033, 16, 784, 486, 1028
3034, 178, 1033, 1006, 1053
3035, 325, 238, 237, 1004
3036, 43, 106, 336, 1049
3037, 335, 327, 336, 943
3038, 372, 461, 130, 1101
3039, 939, 931, 884, 1107
3040, 682, 862, 833, 1172
3041, 59, 1169, 1031, 64
3042, 841, 548, 522, 1046
3043, 1148, 92, 1022, 351
3044, 838, 530, 501, 1009
3045, 66, 339, 950, 1112
3046, 904, 1102, 1087, 1128
3047, 164, 56, 163, 1152
3048, 44, 106, 941, 1131
3049, 904, 1026, 986, 1087
3050, 739, 679, 677, 980
3051, 1150, 1154, 562, 563
3052, 991, 662, 1012, 490
3053, 874, 992, 1058, 1077
3054, 443, 959, 305, 1063
3055, 655, 610, 654, 936
3056, 750, 622, 806, 972
3057, 403, 268, 975, 1025
3058, 141, 458, 284, 1022
3059, 79, 348, 82, 976
3060, 957, 1044, 884, 1104
3061, 835, 478, 3, 984
3062, 745, 800, 991, 1113
3063, 923, 1064, 950, 1126
3064, 419, 346, 395, 935
3065, 168, 292, 259, 1010
3066, 602, 982, 692, 1080
3067, 473, 38, 795, 989
3068, 1044, 350, 444, 278
3069, 557, 638, 639, 1047
3070, 1044, 1101, 884, 1104
3071, 9, 759, 1035, 1075
3072, 144, 278, 116, 1044
3073, 466, 147, 303, 995
3074, 852, 815, 760, 1105
3075, 365, 383, 389, 1048
3076, 287, 203, 323, 1094
3077, 110, 111, 1071, 1098
3078, 195, 197, 196, 1081
3079, 383, 997, 452, 1013
3080, 263, 331, 422, 1050
3081, 500, 772, 498, 985
3082, 597, 854, 13, 1030
3083, 180, 457, 992, 1077
3084, 193, 238, 366, 1054
3085, 617, 1146, 686, 685
3086, 909, 892, 1090, 1127
3087, 413, 460, 91, 920
3088, 37, 205, 36, 1042
3089, 558, 690, 1145, 1166
3090, 223, 1038, 949, 1124
3091, 443, 305, 324, 1063
3092, 177, 245, 250, 1005
3093, 797, 1153, 723, 615
3094, 220, 471, 343, 932
3095, 32, 480, 33, 1008
3096, 222, 155, 224, 1032
3097, 892, 909, 1089, 1127
3098, 27, 1175, 484, 1070
3099, 446, 138, 180, 940
3100, 618, 1039, 619, 1062
3101, 523, 524, 526, 953
3102, 951, 1023, 876, 1084
3103, 744, 823, 745, 1017
3104, 480, 482, 492, 1111
3105, 221, 437, 214, 1085
3106, 544, 550, 545, 1061
3107, 539, 542, 799, 1117
3108, 567, 723, 1153, 1157
3109, 391, 1007, 257, 1033
3110, 374, 939, 442, 1107
3111, 776, 665, 789, 988
3112, 454, 75, 408, 927
3113, 63, 206, 207, 1038
3114, 862, 1146, 614, 732
3115, 276, 277, 1152, 291
3116, 30, 474, 707, 1015
3117, 682, 1146, 1172, 765
3118, 231, 977, 230, 1081
3119, 939, 884, 931, 1101
3120, 168, 169, 166, 1118
3121, 660, 486, 733, 1065
3122, 30, 379, 29, 1052
3123, 874, 1044, 966, 1100
3124, 854, 1002, 968, 1030
3125, 418, 1035, 10, 1121
3126, 147, 466, 311, 1115
3127, 357, 394, 274, 976
3128, 168, 1109, 169, 1118
3129, 241, 983, 244, 1036
3130, 180, 992, 940, 1077
3131, 223, 265, 1038, 1124
3132, 822, 714, 859, 994
3133, 1172, 732, 1146, 862
3134, 31, 365, 143, 1048
3135, 817, 1138, 635, 1043
3136, 306, 307, 447, 959
3137, 323, 223, 54, 1094
3138, 62, 15, 16, 1002
3139, 194, 254, 253, 1013
3140, 108, 109, 148, 1137
3141, 875, 1030, 930, 1097
3142, 248, 387, 17, 1003
3143, 222, 281, 290, 1032
3144, 236, 416, 385, 1092
3145, 169, 240, 299, 1005
3146, 745, 800, 663, 991
3147, 749, 865, 1090, 1095
3148, 239, 197, 195, 1081
3149, 68, 14, 968, 1083
3150, 290, 426, 388, 1072
3151, 149, 173, 151, 1063
3152, 392, 196, 438, 977
3153, 189, 195, 190, 977
3154, 852, 512, 954, 1105
3155, 450, 108, 148, 1137
3156, 354, 353, 409, 1037
3157, 97, 1053, 177, 1118
3158, 95, 1147, 96, 1118
3159, 405, 93, 394, 976
3160, 326, 1004, 325, 1056
3161, 669, 496, 493, 1018
3162, 789, 477, 988, 1097
3163, 289, 1033, 257, 1115
3164, 327, 335, 431, 943
3165, 324, 305, 995, 1063
3166, 223, 1094, 323, 1124
3167, 495, 1018, 496, 1057
3168, 952, 1013, 886, 1119
3169, 112, 114, 113, 971
3170, 724, 1175, 1171, 596
3171, 398, 1143, 1163, 397
3172, 641, 869, 1027, 1110
3173, 383, 452, 253, 1013
3174, 1154, 555, 560, 561
3175, 637, 636, 695, 1069
3176, 1144, 99, 103, 156
3177, 310, 412, 302, 1034
3178, 806, 972, 572, 1096
3179, 262, 331, 263, 1050
3180, 446, 180, 326, 940
3181, 1153, 579, 1157, 671
3182, 609, 1000, 493, 1130
3183, 667, 592, 1156, 1105
3184, 693, 1080, 692, 1103
3185, 502, 500, 501, 987
3186, 304, 347, 252, 1024
3187, 1077, 128, 132, 133
3188, 1174, 820, 1161, 821
3189, 214, 437, 216, 1085
3190, 690, 1166, 558, 715
3191, 369, 178, 97, 1053
3192, 178, 1005, 177, 1053
3193, 116, 1044, 278, 1100
3194, 341, 283, 458, 1022
3195, 374, 356, 273, 939
3196, 487, 21, 20, 964
3197, 162, 1024, 335, 1131
3198, 722, 502, 506, 987
3199, 3, 1001, 1068, 4
3200, 407, 183, 430, 1023
3201, 3, 1001, 4, 428
3202, 771, 1015, 848, 918
3203, 272, 939, 233, 1081
3204, 1167, 1146, 685, 614
3205, 854, 597, 784, 1030
3206, 815, 654, 590, 999
3207, 438, 977, 449, 392
3208, 195, 366, 239, 1123
3209, 772, 572, 498, 1096
3210, 1157, 567, 611, 580
3211, 442, 374, 273, 939
3212, 438, 449, 977, 230
3213, 781, 759, 1075, 1091
3214, 811, 999, 954, 1105
3215, 568, 745, 1113, 826
3216, 1161, 820, 681, 682
3217, 806, 972, 1096, 1110
3218, 1161, 820, 682, 765
3219, 103, 1140, 165, 329
3220, 271, 1083, 453, 67
3221, 735, 533, 653, 1135
3222, 998, 1071, 881, 1098
3223, 149, 401, 173, 1063
3224, 676, 730, 802, 1012
3225, 230, 200, 229, 1081
3226, 229, 228, 272, 1081
3227, 904, 1026, 1087, 1102
3228, 893, 1087, 1026, 1102
3229, 956, 1030, 875, 1097
3230, 786, 1060, 688, 1134
3231, 248, 18, 65, 1003
3232, 486, 660, 734, 947
3233, 429, 268, 298, 975
3234, 358, 224, 264, 965
3235, 166, 167, 165, 1053
3236, 303, 305, 304, 1024
3237, 512, 656, 1046, 1105
3238, 301, 1005, 300, 973
3239, 780, 796, 473, 946
3240, 326, 325, 446, 1056
3241, 272, 461, 372, 939
3242, 425, 430, 183, 1084
3243, 744, 664, 579, 1108
3244, 338, 957, 416, 1104
3245, 107, 399, 105, 1115
3246, 773, 847, 1120, 687
3247, 161, 467, 970, 1131
3248, 426, 110, 78, 1071
3249, 433, 308, 52, 983
3250, 1158, 192, 61, 319
3251, 231, 230, 229, 1081
3252, 494, 861, 734, 1122
3253, 398, 1163, 87, 397
3254, 27, 28, 50, 964
3255, 1148, 351, 221, 410
3256, 5, 433, 4, 1068
3257, 206, 226, 207, 1038
3258, 265, 331, 226, 969
3259, 825, 731, 986, 1087
3260, 235, 1101, 444, 1104
3261, 161, 386, 182, 959
3262, 874, 940, 992, 1077
3263, 367, 136, 137, 951
3264, 383, 253, 254, 1013
3265, 306, 308, 360, 970
3266, 377, 160, 340, 979
3267, 1140, 107, 1115, 289
3268, 55, 360, 7, 941
3269, 825, 731, 689, 986
3270, 857, 549, 730, 1125
3271, 839, 852, 512, 954
3272, 464, 341, 376, 920
3273, 694, 692, 606, 982
3274, 144, 338, 278, 1044
3275, 1146, 685, 765, 686
3276, 425, 183, 136, 1084
3277, 422, 331, 265, 969
3278, 695, 1133, 518, 751
3279, 659, 818, 817, 1138
3280, 667, 760, 592, 1105
3281, 1155, 1173, 719, 814
3282, 1156, 999, 849, 767
3283, 97, 177, 95, 1118
3284, 881, 1034, 1011, 1071
3285, 851, 794, 585, 1020
3286, 1143, 296, 1163, 397
3287, 621, 619, 1039, 1095
3288, 154, 158, 159, 960
3289, 80, 348, 79, 981
3290, 488, 490, 623, 922
3291, 739, 740, 679, 980
3292, 391, 167, 299, 1006
3293, 66, 260, 339, 1112
3294, 495, 496, 497, 1057
3295, 578, 858, 585, 1020
3296, 695, 1133, 751, 1069
3297, 36, 576, 37, 1042
3298, 179, 315, 401, 1063
3299, 69, 222, 388, 1072
3300, 1162, 48, 1116, 49
3301, 796, 780, 778, 946
3302, 636, 790, 727, 1069
3303, 463, 182, 386, 959
3304, 163, 58, 445, 1036
3305, 72, 71, 70, 1082
3306, 519, 974, 520, 521
3307, 207, 267, 268, 1025
3308, 3, 984, 657, 1068
3309, 200, 228, 229, 1081
3310, 990, 1061, 569, 1114
3311, 928, 256, 424, 962
3312, 762, 1102, 712, 1103
3313, 472, 755, 837, 984
3314, 569, 574, 990, 1114
3315, 700, 701, 699, 1043
3316, 83, 361, 81, 1010
3317, 68, 70, 67, 1083
3318, 307, 354, 417, 1037
3319, 134, 456, 404, 1106
3320, 574, 593, 577, 1047
3321, 246, 245, 178, 1006
3322, 251, 369, 311, 1033
3323, 359, 144, 114, 966
3324, 273, 197, 239, 1081
3325, 68, 14, 15, 968
3326, 102, 105, 104, 1115
3327, 771, 474, 848, 1015
3328, 179, 401, 149, 1063
3329, 263, 153, 262, 1050
3330, 301, 300, 327, 973
3331, 569, 571, 570, 990
3332, 411, 275, 337, 1036
3333, 132, 136, 183, 1023
3334, 407, 430, 459, 1023
3335, 300, 299, 240, 1005
3336, 234, 236, 255, 1092
3337, 485, 483, 484, 1070
3338, 575, 578, 581, 938
3339, 399, 1115, 342, 1137
3340, 3, 1162, 2, 835
3341, 298, 269, 452, 1088
3342, 710, 1090, 865, 1127
3343, 623, 490, 624, 922
3344, 422, 318, 285, 1019
3345, 1161, 684, 834, 683
3346, 53, 42, 336, 1049
3347, 657, 478, 658, 984
3348, 112, 359, 114, 971
3349, 753, 786, 688, 1134
3350, 37, 54, 205, 1042
3351, 54, 286, 323, 1094
3352, 444, 278, 338, 1044
3353, 535, 619, 618, 1039
3354, 102, 107, 105, 1115
3355, 345, 252, 347, 943
3356, 40, 39, 788, 1093
3357, 182, 315, 242, 995
3358, 277, 1152, 291, 1116
3359, 622, 572, 806, 972
3360, 317, 452, 269, 967
3361, 9, 8, 759, 1075
3362, 425, 309, 430, 1084
3363, 162, 243, 335, 1024
3364, 792, 482, 32, 1008
3365, 93, 1163, 296, 397
3366, 1116, 1152, 1036, 163
3367, 102, 101, 100, 1140
3368, 538, 534, 735, 1135
3369, 429, 403, 268, 975
3370, 196, 392, 190, 977
3371, 111, 110, 112, 1098
3372, 506, 528, 722, 1026
3373, 703, 704, 1105, 667
3374, 511, 656, 514, 1046
3375, 193, 194, 237, 1054
3376, 637, 695, 696, 1069
3377, 727, 830, 518, 1133
3378, 846, 731, 531, 1073
3379, 473, 39, 38, 989
3380, 242, 257, 243, 1007
3381, 340, 160, 465, 979
3382, 829, 639, 638, 1047
3383, 321, 413, 1022, 1136
3384, 563, 1164, 561, 766
3385, 1, 1116, 56, 277
3386, 493, 609, 669, 1000
3387, 129, 429, 298, 997
3388, 19, 768, 20, 1086
3389, 223, 318, 265, 1124
3390, 239, 375, 442, 1123
3391, 385, 415, 255, 1119
3392, 272, 372, 233, 939
3393, 245, 408, 250, 1005
3394, 427, 270, 462, 1112
3395, 362, 349, 145, 1041
3396, 801, 552, 544, 990
3397, 148, 149, 151, 1063
3398, 50, 439, 27, 964
3399, 750, 641, 601, 1027
3400, 715, 863, 793, 1155
3401, 693, 604, 692, 1080
3402, 339, 393, 66, 950
3403, 502, 501, 503, 1009
3404, 483, 488, 668, 980
3405, 138, 468, 145, 1041
3406, 44, 467, 106, 1131
3407, 504, 506, 502, 1074
3408, 674, 673, 675, 1108
3409, 323, 286, 287, 1094
3410, 104, 1115, 105, 1137
3411, 332, 218, 282, 1076
3412, 104, 147, 1115, 1137
3413, 583, 582, 578, 994
3414, 376, 341, 458, 920
3415, 565, 728, 569, 1114
3416, 939, 1107, 884, 1123
3417, 63, 207, 403, 1025
3418, 45, 481, 46, 963
3419, 180, 314, 455, 992
3420, 116, 114, 144, 966
3421, 820, 1160, 832, 1174
3422, 630, 629, 589, 1021
3423, 770, 669, 708, 1000
3424, 56, 2, 163, 1116
3425, 625, 848, 623, 918
3426, 368, 950, 227, 1064
3427, 355, 294, 135, 1106
3428, 25, 24, 1151, 279
3429, 171, 170, 172, 948
3430, 338, 144, 416, 957
3431, 433, 58, 4, 1001
3432, 144, 359, 358, 1132
3433, 645, 717, 1173, 719
3434, 407, 459, 127, 1023
3435, 524, 811, 653, 954
3436, 199, 228, 200, 1081
3437, 991, 662, 490, 663
3438, 489, 490, 488, 1012
3439, 289, 391, 257, 1033
3440, 781, 759, 525, 1075
3441, 869, 640, 641, 1027
3442, 238, 326, 330, 1004
3443, 463, 401, 315, 1063
3444, 127, 132, 1023, 1058
3445, 824, 779, 576, 1016
3446, 621, 619, 535, 1039
3447, 968, 1083, 872, 1129
3448, 300, 328, 327, 973
3449, 242, 243, 162, 1024
3450, 181, 414, 445, 1036
3451, 710, 702, 808, 1127
3452, 51, 423, 419, 1029
3453, 285, 263, 422, 1050
3454, 483, 485, 488, 980
3455, 150, 46, 244, 983
3456, 524, 523, 522, 1046
3457, 413, 94, 460, 920
3458, 268, 267, 269, 1088
3459, 374, 131, 126, 1107
3460, 670, 1145, 558, 690
3461, 820, 1160, 1174, 681
3462, 1151, 25, 279, 1158
3463, 458, 283, 284, 1022
3464, 529, 519, 521, 1133
3465, 205, 54, 223, 949
3466, 507, 508, 506, 1074
3467, 380, 143, 389, 1048
3468, 685, 1172, 732, 1146
3469, 791, 674, 802, 991
3470, 712, 762, 528, 1102
3471, 1139, 397, 87, 1163
3472, 104, 101, 102, 1115
3473, 199, 200, 198, 1081
3474, 308, 447, 52, 983
3475, 776, 789, 477, 988
3476, 59, 184, 64, 1031
3477, 322, 65, 19, 1126
3478, 313, 962, 339, 1112
3479, 47, 244, 46, 1001
3480, 181, 445, 435, 1036
3481, 594, 642, 1159, 645
3482, 685, 1172, 1146, 765
3483, 1169, 1031, 260, 1158
3484, 561, 1164, 555, 670
3485, 811, 651, 844, 999
3486, 3, 478, 657, 984
3487, 752, 1040, 698, 1110
3488, 661, 660, 631, 1078
3489, 725, 487, 739, 1070
3490, 415, 1119, 65, 1126
3491, 45, 161, 467, 970
3492, 417, 354, 409, 1037
3493, 639, 691, 994, 859
3494, 505, 688, 1060, 895
3495, 37, 576, 795, 1042
3496, 312, 288, 386, 1037
3497, 651, 650, 714, 994
3498, 580, 617, 612, 1168
3499, 752, 1096, 1040, 1110
3500, 339, 313, 424, 962
3501, 251, 178, 369, 1033
3502, 311, 104, 147, 1115
3503, 58, 428, 4, 1001
3504, 666, 1046, 516, 514
3505, 140, 142, 152, 1045
3506, 45, 150, 161, 970
3507, 146, 446, 325, 1056
3508, 176, 148, 151, 1063
3509, 512, 760, 656, 1105
3510, 1170, 591, 592, 742
3511, 321, 92, 351, 1022
3512, 167, 1140, 165, 1053
3513, 710, 865, 709, 1127
3514, 782, 700, 658, 1043
3515, 1161, 833, 682, 834
3516, 806, 1096, 752, 1110
3517, 299, 167, 166, 1053
3518, 620, 776, 618, 1062
3519, 522, 548, 524, 1046
3520, 140, 137, 139, 1045
3521, 841, 704, 767, 1105
3522, 321, 280, 413, 1136
3523, 216, 437, 370, 1085
3524, 305, 443, 307, 959
3525, 252, 303, 304, 1024
3526, 473, 788, 39, 989
3527, 195, 196, 190, 977
3528, 861, 18, 17, 1003
3529, 705, 472, 837, 984
3530, 95, 361, 83, 1010
3531, 593, 574, 728, 1114
3532, 569, 574, 571, 990
3533, 656, 760, 667, 1105
3534, 451, 211, 213, 932
3535, 714, 650, 859, 994
3536, 660, 733, 630, 1065
3537, 350, 372, 130, 1101
3538, 405, 394, 357, 976
3539, 224, 281, 222, 1032
3540, 324, 305, 147, 995
3541, 222, 290, 388, 1072
3542, 427, 270, 1141, 392
3543, 665, 588, 629, 1066
3544, 34, 403, 429, 975
3545, 43, 336, 42, 1049
3546, 532, 846, 531, 1073
3547, 96, 97, 95, 1118
3548, 852, 760, 512, 1105
3549, 786, 608, 741, 1060
3550, 1151, 1175, 1165, 736
3551, 693, 692, 762, 1103
3552, 302, 153, 263, 1050
3553, 257, 391, 243, 1007
3554, 441, 110, 426, 1098
3555, 749, 865, 573, 1090
3556, 20, 21, 66, 1031
3557, 418, 9, 10, 1035
3558, 1, 56, 1116, 2
3559, 622, 778, 497, 1057
3560, 269, 420, 317, 967
3561, 546, 791, 802, 991
3562, 707, 771, 708, 1015
3563, 342, 399, 107, 1115
3564, 284, 406, 1148, 371
3565, 420, 146, 325, 1056
3566, 596, 737, 23, 1165
3567, 708, 669, 609, 1000
3568, 1171, 1070, 1175, 724
3569, 825, 620, 731, 1087
3570, 1112, 1169, 260, 232
3571, 604, 603, 602, 1080
3572, 229, 233, 231, 1081
3573, 230, 424, 449, 977
3574, 652, 731, 855, 1087
3575, 368, 396, 254, 1064
3576, 1151, 23, 22, 319
3577, 212, 221, 214, 1085
3578, 570, 568, 569, 1061
3579, 744, 662, 991, 663
3580, 29, 803, 474, 1052
3581, 259, 170, 168, 1010
3582, 216, 219, 218, 1085
3583, 612, 1167, 614, 856
3584, 537, 538, 539, 1117
3585, 535, 9, 759, 1035
3586, 632, 738, 816, 1089
3587, 707, 792, 31, 996
3588, 256, 339, 424, 962
3589, 500, 502, 722, 987
3590, 276, 277, 56, 1152
3591, 321, 413, 92, 1022
3592, 587, 536, 537, 1051
3593, 493, 492, 482, 1130
3594, 881, 1071, 1011, 1098
3595, 74, 77, 352, 1067
3596, 697, 34, 480, 1111
3597, 1151, 26, 736, 25
3598, 523, 743, 521, 974
3599, 726, 1160, 1171, 475
3600, 427, 462, 185, 1112
3601, 180, 457, 314, 992
3602, 415, 316, 65, 1119
3603, 305, 307, 306, 959
3604, 1155, 717, 793, 719
3605, 305, 303, 147, 995
3606, 302, 263, 285, 1050
3607, 382, 51, 11, 1029
3608, 415, 322, 393, 1126
3609, 303, 252, 251, 1007
3610, 720, 715, 793, 1166
3611, 232, 339, 260, 1112
3612, 697, 779, 824, 1016
3613, 19, 18, 494, 1086
3614, 752, 694, 698, 1040
3615, 51, 11, 1029, 1121
3616, 367, 425, 136, 1084
3617, 511, 512, 656, 1046
3618, 184, 185, 64, 1112
3619, 480, 32, 482, 1008
3620, 161, 162, 467, 1131
3621, 30, 707, 31, 996
3622, 193, 237, 238, 1054
3623, 693, 712, 713, 1103
3624, 640, 869, 600, 1014
3625, 403, 207, 268, 1025
3626, 248, 17, 18, 1003
3627, 204, 285, 318, 1019
3628, 575, 574, 577, 1047
3629, 580, 611, 1157, 1168
3630, 770, 649, 753, 1059
3631, 518, 515, 516, 1133
3632, 412, 249, 302, 978
3633, 11, 10, 618, 1121
3634, 315, 384, 242, 995
3635, 295, 456, 343, 1106
3636, 391, 299, 301, 1006
3637, 1148, 221, 1085, 370
3638, 484, 483, 27, 1070
3639, 73, 74, 72, 1082
3640, 667, 592, 845, 1156
3641, 457, 128, 314, 992
3642, 199, 198, 197, 1081
3643, 206, 265, 226, 1038
3644, 811, 767, 999, 1105
3645, 104, 311, 101, 1115
3646, 303, 251, 466, 1007
3647, 785, 664, 662, 1108
3648, 1170, 586, 1149, 644
3649, 1112, 1169, 191, 64
3650, 126, 127, 125, 1058
3651, 37, 795, 38, 1042
3652, 375, 314, 131, 1107
3653, 273, 199, 197, 1081
3654, 180, 133, 457, 1077
3655, 647, 581, 610, 1055
3656, 799, 687, 587, 1120
3657, 372, 444, 235, 1101
3658, 495, 493, 496, 1018
3659, 244, 337, 241, 1036
3660, 325, 326, 238, 1004
3661, 565, 569, 568, 1061
3662, 358, 359, 281, 1132
3663, 58, 435, 445, 1036
3664, 696, 775, 843, 1069
3665, 804, 722, 528, 1026
3666, 261, 309, 425, 1084
3667, 370, 437, 221, 1085
3668, 439, 402, 59, 1031
3669, 407, 127, 132, 1023
3670, 696, 751, 775, 1069
3671, 806, 572, 752, 1096
3672, 518, 516, 519, 1133
3673, 528, 508, 712, 1102
3674, 812, 716, 1173, 1159
3675, 791, 545, 551, 1017
3676, 640, 601, 641, 1027
3677, 741, 505, 688, 1060
3678, 465, 400, 332, 1076
3679, 568, 745, 823, 1017
3680, 404, 295, 355, 1106
3681, 116, 278, 118, 1100
3682, 601, 41, 40, 1093
3683, 244, 312, 150, 983
3684, 648, 763, 786, 1134
3685, 711, 4, 657, 1068
3686, 501, 530, 503, 1009
3687, 600, 479, 640, 1014
3688, 588, 536, 587, 1051
3689, 725, 739, 724, 1070
3690, 424, 230, 231, 977
3691, 863, 718, 793, 1155
3692, 128, 127, 126, 1058
3693, 603, 747, 599, 1099
3694, 100, 99, 1144, 98
3695, 220, 451, 213, 932
3696, 80, 110, 111, 1071
3697, 751, 519, 529, 1133
3698, 693, 762, 712, 1103
3699, 554, 555, 553, 1114
3700, 15, 968, 854, 1002
3701, 298, 452, 129, 997
3702, 490, 489, 662, 1012
3703, 236, 338, 416, 1104
3704, 385, 316, 415, 1119
3705, 209, 249, 280, 1136
3706, 16, 486, 17, 1028
3707, 767, 651, 811, 999
3708, 636, 727, 695, 1069
3709, 470, 14, 67, 1083
3710, 685, 1172, 765, 777
3711, 533, 534, 532, 1135
3712, 383, 129, 452, 997
3713, 60, 244, 47, 1001
3714, 168, 1147, 292, 1010
3715, 3, 657, 4, 1068
3716, 707, 474, 771, 1015
3717, 132, 183, 407, 1023
3718, 418, 10, 51, 1121
3719, 569, 728, 574, 1114
3720, 781, 621, 759, 1091
3721, 23, 1151, 279, 319
3722, 588, 665, 689, 1066
3723, 355, 295, 294, 1106
3724, 573, 526, 652, 1128
3725, 838, 770, 530, 1059
3726, 599, 747, 598, 1099
3727, 691, 813, 807, 1020
3728, 669, 838, 499, 1079
3729, 4, 711, 5, 1068
3730, 142, 140, 139, 1045
3731, 229, 272, 233, 1081
3732, 743, 573, 710, 1090
3733, 378, 302, 249, 978
3734, 312, 175, 288, 1037
3735, 530, 770, 753, 1059
3736, 806, 752, 698, 1110
3737, 654, 815, 852, 999
3738, 16, 854, 784, 1002
3739, 849, 742, 1170, 1156
3740, 261, 367, 154, 1084
3741, 658, 700, 699, 1043
3742, 351, 212, 210, 1085
3743, 116, 118, 117, 1100
3744, 322, 415, 65, 1126
3745, 38, 54, 37, 1042
3746, 517, 515, 830, 1133
3747, 131, 374, 442, 1107
3748, 673, 674, 672, 1108
3749, 212, 351, 221, 1085
3750, 352, 361, 250, 1109
3751, 620, 618, 619, 1062
3752, 827, 632, 605, 1089
3753, 685, 1172, 777, 732
3754, 537, 539, 799, 1117
3755, 647, 610, 842, 1055
3756, 241, 175, 312, 1037
3757, 641, 698, 869, 1110
3758, 184, 59, 402, 1031
3759, 480, 492, 697, 1111
3760, 855, 731, 620, 1087
3761, 191, 270, 232, 1112
3762, 535, 10, 9, 1035
3763, 734, 758, 494, 1122
3764, 399, 109, 105, 1137
3765, 602, 692, 604, 1080
3766, 609, 482, 792, 1130
3767, 338, 235, 444, 1104
3768, 77, 74, 76, 1067
3769, 127, 128, 132, 1058
3770, 166, 157, 168, 1118
3771, 1151, 24, 23, 279
3772, 690, 1166, 715, 720
3773, 800, 826, 607, 1113
3774, 289, 167, 391, 1033
3775, 250, 361, 177, 1109
3776, 615, 1157, 611, 613
3777, 16, 15, 854, 1002
3778, 745, 826, 800, 1113
3779, 695, 751, 696, 1069
3780, 858, 851, 585, 1020
3781, 621, 749, 619, 1095
3782, 709, 701, 702, 1127
3783, 632, 827, 738, 1089
3784, 375, 131, 442, 1107
3785, 216, 370, 219, 1085
3786, 138, 133, 180, 1077
3787, 362, 145, 468, 1041
3788, 797, 671, 1153, 615
3789, 786, 741, 688, 1060
3790, 1174, 820, 821, 832
3791, 518, 519, 751, 1133
3792, 21, 260, 66, 1031
3793, 390, 318, 223, 1124
3794, 375, 239, 330, 1123
3795, 670, 766, 1145, 690
3796, 177, 97, 178, 1053
3797, 456, 295, 404, 1106
3798, 441, 112, 110, 1098
3799, 669, 499, 496, 1079
3800, 526, 531, 652, 1128
3801, 137, 133, 138, 1077
3802, 108, 450, 147, 1137
3803, 1155, 1173, 814, 718
3804, 786, 753, 648, 1134
3805, 639, 691, 807, 1020
3806, 621, 781, 709, 1091
3807, 718, 717, 793, 1155
3808, 595, 594, 642, 1149
3809, 505, 504, 503, 895
3810, 681, 774, 1160, 836
3811, 507, 506, 504, 1074
3812, 162, 335, 106, 1131
3813, 342, 289, 257, 1115
3814, 202, 348, 80, 981
3815, 450, 148, 176, 1063
3816, 1161, 833, 834, 684
3817, 104, 108, 147, 1137
3818, 330, 239, 366, 1123
3819, 742, 1170, 591, 595
3820, 108, 104, 105, 1137
3821, 398, 84, 87, 1163
3822, 811, 548, 767, 1105
3823, 68, 67, 14, 1083
3824, 156, 297, 292, 1147
3825, 365, 389, 143, 1048
3826, 553, 552, 554, 1114
3827, 15, 14, 854, 968
3828, 332, 282, 465, 1076
3829, 694, 752, 804, 1040
3830, 265, 206, 440, 1038
3831, 3, 1162, 835, 984
3832, 742, 1156, 849, 704
3833, 232, 270, 313, 1112
3834, 337, 275, 241, 1036
3835, 505, 503, 688, 895
3836, 64, 185, 462, 1112
3837, 324, 176, 443, 1063
3838, 865, 749, 621, 1095
3839, 710, 709, 702, 1127
3840, 382, 423, 51, 1029
3841, 85, 1143, 398, 373
3842, 96, 99, 1147, 373
3843, 631, 773, 661, 1078
3844, 773, 847, 549, 1125
3845, 110, 80, 78, 1071
3846, 372, 350, 444, 1101
3847, 236, 385, 255, 1092
3848, 342, 107, 289, 1115
3849, 497, 778, 495, 1057
3850, 105, 109, 108, 1137
3851, 737, 1171, 1160, 475
3852, 73, 72, 70, 1082
3853, 227, 396, 368, 1064
3854, 752, 572, 772, 1096
3855, 719, 1159, 1173, 645
3856, 280, 321, 209, 1136
3857, 1173, 716, 717, 645
3858, 109, 399, 179, 1137
3859, 806, 698, 641, 1110
3860, 771, 848, 625, 918
3861, 390, 223, 323, 1124
3862, 662, 664, 744, 1108
3863, 684, 1161, 765, 821
3864, 384, 179, 342, 1137
3865, 40, 788, 601, 1093
3866, 450, 176, 324, 1063
3867, 1174, 834, 683, 1161
3868, 614, 685, 1167, 612
3869, 1143, 297, 296, 397
3870, 477, 840, 850, 1097
3871, 29, 474, 30, 1052
3872, 799, 847, 687, 1120
3873, 19, 494, 768, 1086
3874, 49, 320, 48, 1116
3875, 611, 580, 612, 1168
3876, 48, 320, 60, 1116
3877, 548, 841, 767, 1105
3878, 363, 276, 164, 1152
3879, 269, 298, 268, 1088
3880, 51, 10, 11, 1121
3881, 649, 771, 625, 918
3882, 399, 342, 179, 1137
3883, 425, 367, 261, 1084
3884, 1172, 777, 684, 765
3885, 820, 1160, 681, 819
3886, 24, 23, 737, 1165
3887, 1174, 821, 1161, 683
3888, 1169, 64, 61, 191
3889, 518, 830, 515, 1133
3890, 773, 549, 857, 1125
3891, 534, 533, 735, 1135
3892, 716, 1159, 642, 645
3893, 1174, 820, 681, 1161
3894, 1146, 682, 686, 765
3895, 1154, 560, 562, 561
3896, 8, 525, 759, 1075
3897, 865, 710, 573, 1090
3898, 609, 493, 482, 1130
3899, 1174, 834, 1161, 681
3900, 840, 597, 850, 1097
3901, 338, 236, 235, 1104
3902, 1146, 685, 614, 732
3903, 716, 1173, 717, 718
3904, 723, 567, 611, 1157
3905, 106, 467, 162, 1131
3906, 774, 1160, 836, 737
3907, 723, 1150, 562, 564
3908, 313, 339, 232, 1112
3909, 821, 684, 1161, 683
3910, 25, 61, 279, 1158
3911, 742, 1156, 704, 845
3912, 1174, 832, 821, 683
3913, 1162, 1, 764, 628
3914, 571, 911, 754, 584
3915, 571, 911, 584, 990
3916, 912, 860, 542, 847
3917, 912, 860, 847, 942
3918, 1006, 431, 973, 301
3919, 1006, 973, 431, 943
3920, 1106, 400, 332, 135
3921, 1106, 332, 400, 1076
3922, 1092, 256, 900, 255
3923, 1092, 900, 256, 962
3924, 1139, 976, 86, 920
3925, 920, 89, 93, 460
3926, 1096, 987, 722, 887
3927, 1096, 722, 987, 772
3928, 937, 864, 916, 747
3929, 937, 916, 864, 934
3930, 499, 987, 501, 500
3931, 499, 987, 500, 985
3932, 637, 1069, 635, 636
3933, 637, 635, 1069, 926
3934, 633, 635, 1069, 636
3935, 633, 1069, 635, 926
3936, 937, 476, 798, 934
3937, 937, 798, 476, 729
3938, 584, 990, 570, 571
3939, 570, 990, 584, 945
3940, 1082, 75, 71, 897
3941, 1082, 71, 75, 72
3942, 677, 1070, 724, 739
3943, 677, 1070, 739, 980
3944, 991, 922, 730, 942
3945, 991, 922, 942, 490
3946, 378, 1045, 960, 152
3947, 960, 1045, 378, 978
3948, 960, 158, 378, 152
3949, 504, 903, 895, 706
3950, 504, 903, 706, 507
3951, 1135, 1051, 534, 536
3952, 1135, 534, 1051, 902
3953, 785, 680, 675, 868
3954, 675, 680, 785, 828
3955, 1054, 189, 366, 193
3956, 1054, 366, 189, 928
3957, 1110, 1014, 982, 869
3958, 1110, 982, 1014, 888
3959, 1072, 880, 871, 998
3960, 1072, 871, 880, 925
3961, 1097, 789, 930, 988
3962, 1097, 930, 789, 840
3963, 1042, 824, 913, 36
3964, 1042, 913, 824, 1016
3965, 1096, 875, 1057, 985
3966, 1096, 1057, 875, 972
3967, 468, 940, 138, 446
3968, 468, 940, 446, 1056
3969, 417, 983, 435, 52
3970, 417, 983, 52, 447
3971, 1087, 749, 619, 855
3972, 1087, 619, 749, 1095
3973, 1151, 24, 25, 736
3974, 1062, 986, 988, 887
3975, 1051, 1120, 1021, 894
3976, 587, 1021, 1120, 589
3977, 587, 1021, 589, 588
3978, 564, 565, 1150, 563
3979, 920, 1136, 94, 891
3980, 1154, 1061, 560, 1114
3981, 412, 94, 1136, 891
3982, 412, 1136, 94, 280
3983, 182, 1131, 1024, 162
3984, 1024, 1131, 182, 959
3985, 634, 926, 627, 633
3986, 634, 926, 633, 635
3987, 1062, 825, 1087, 620
3988, 1062, 1087, 825, 986
3989, 1047, 858, 646, 577
3990, 1047, 646, 858, 1020
3991, 191, 1169, 1112, 232
3992, 356, 293, 228, 939
3993, 900, 1126, 393, 950
3994, 393, 1126, 900, 1119
3995, 936, 811, 954, 653
3996, 936, 811, 653, 844
3997, 1121, 1062, 1039, 618
3998, 1121, 1039, 1062, 888
3999, 139, 1041, 138, 145
4000, 138, 1041, 139, 961
4001, 691, 994, 859, 650
4002, 691, 994, 650, 643
4003, 1064, 389, 380, 396
4004, 1064, 380, 389, 1048
4005, 30, 889, 996, 143
4006, 30, 889, 143, 379
4007, 707, 1000, 609, 996
4008, 707, 1000, 996, 1015
4009, 1120, 631, 773, 687
4010, 1120, 773, 631, 1078
4011, 1023, 134, 1106, 459
4012, 1023, 1106, 134, 915
4013, 1096, 498, 497, 572
4014, 1096, 497, 498, 985
4015, 892, 916, 605, 1080
4016, 605, 916, 892, 1089
4017, 605, 604, 892, 1080
4018, 827, 892, 604, 693
4019, 1041, 421, 349, 145
4020, 1041, 349, 421, 899
4021, 1073, 1128, 731, 531
4022, 731, 1128, 1073, 904
4023, 973, 381, 1005, 300
4024, 973, 1005, 381, 927
4025, 1047, 571, 938, 575
4026, 1047, 938, 571, 990
4027, 1133, 808, 743, 529
4028, 1133, 743, 808, 909
4029, 382, 955, 453, 271
4030, 382, 955, 271, 423
4031, 472, 934, 787, 755
4032, 472, 934, 755, 984
4033, 1068, 983, 46, 963
4034, 1068, 46, 983, 1001
4035, 1082, 434, 75, 933
4036, 1082, 75, 434, 72
4037, 185, 962, 186, 187
4038, 185, 962, 187, 427
4039, 956, 470, 14, 13
4040, 14, 956, 13, 1030
4041, 80, 908, 981, 79
4042, 80, 908, 79, 78
4043, 1064, 436, 950, 227
4044, 1064, 950, 436, 923
4045, 402, 950, 436, 227
4046, 402, 436, 950, 923
4047, 1083, 453, 67, 470
4048, 271, 1083, 67, 71
4049, 657, 934, 699, 711
4050, 657, 934, 711, 1068
4051, 852, 936, 954, 655
4052, 852, 936, 655, 654
4053, 1123, 1104, 1004, 884
4054, 1123, 1004, 1104, 928
4055, 1091, 865, 709, 621
4056, 1091, 865, 621, 1095
4057, 1077, 132, 136, 133
4058, 1077, 136, 132, 1023
4059, 956, 470, 13, 453
4060, 956, 470, 453, 1083
4061, 1098, 290, 426, 441
4062, 1098, 426, 290, 998
4063, 1108, 580, 673, 664
4064, 1108, 673, 580, 616
4065, 721, 673, 580, 664
4066, 721, 580, 673, 616
4067, 1162, 48, 49, 705
4068, 1162, 48, 705, 984
4069, 917, 219, 1076, 282
4070, 917, 1076, 219, 1085
4071, 218, 1076, 219, 282
4072, 218, 219, 1076, 1085
4073, 582, 936, 938, 994
4074, 84, 85, 1143, 398
4075, 582, 938, 1055, 581
4076, 582, 938, 581, 578
4077, 1027, 1029, 1093, 878
4078, 1093, 1029, 1027, 901
4079, 1090, 808, 1127, 710
4080, 1090, 1127, 808, 909
4081, 1172, 732, 833, 777
4082, 1058, 128, 1077, 992
4083, 457, 128, 1077, 133
4084, 457, 1077, 128, 992
4085, 1111, 779, 907, 492
4086, 1111, 907, 779, 1016
4087, 257, 995, 242, 384
4088, 257, 995, 384, 1137
4089, 1136, 979, 1022, 917
4090, 1136, 1022, 979, 891
4091, 340, 1022, 979, 917
4092, 340, 979, 1022, 891
4093, 1090, 1103, 909, 910
4094, 909, 1103, 1090, 892
4095, 1137, 257, 342, 384
4096, 1137, 342, 257, 1115
4097, 954, 548, 524, 811
4098, 954, 548, 811, 1105
4099, 1124, 204, 318, 1019
4100, 1124, 318, 204, 390
4101, 1061, 551, 545, 1017
4102, 1061, 545, 551, 550
4103, 1099, 1091, 1080, 916
4104, 1099, 1080, 1091, 896
4105, 1097, 13, 12, 956
4106, 1097, 12, 13, 850
4107, 1113, 570, 607, 945
4108, 1113, 607, 570, 826
4109, 1077, 136, 137, 133
4110, 1077, 137, 136, 951
4111, 66, 1126, 393, 322
4112, 393, 1126, 66, 950
4113, 1084, 159, 154, 261
4114, 1084, 154, 159, 960
4115, 665, 986, 988, 825
4116, 665, 986, 825, 689
4117, 1107, 128, 314, 131
4118, 1107, 314, 128, 992
4119, 1036, 60, 244, 337
4120, 1036, 244, 60, 1001
4121, 1001, 48, 47, 60
4122, 1001, 48, 60, 1116
4123, 1122, 768, 494, 1086
4124, 1122, 494, 768, 758
4125, 59, 1169, 64, 61
4126, 59, 1169, 61, 1158
4127, 49, 277, 1116, 1
4128, 49, 1116, 277, 320
4129, 1162, 2, 835, 764
4130, 1162, 1, 628, 49
4131, 163, 3, 1116, 2
4132, 716, 812, 1173, 718
4133, 220, 430, 932, 344
4134, 220, 932, 430, 451
4135, 378, 960, 249, 158
4136, 249, 960, 378, 978
4137, 1161, 1172, 765, 682
4138, 834, 681, 682, 1161
4139, 595, 1149, 591, 594
4140, 1138, 818, 817, 783
4141, 637, 926, 782, 1043
4142, 742, 592, 1170, 1156
4143, 637, 782, 817, 1043
4144, 644, 595, 1149, 1170
4145, 1139, 88, 89, 920
4146, 1139, 397, 1163, 93
4147, 87, 1139, 88, 89
4148, 920, 93, 89, 1139
4149, 614, 1146, 862, 809
4150, 516, 1046, 520, 974
4151, 163, 1152, 1036, 164
4152, 666, 520, 516, 1046
4153, 1116, 1152, 291, 1036
4154, 334, 461, 293, 939
4155, 836, 832, 1174, 683
4156, 1145, 766, 761, 690
4157, 1140, 107, 289, 329
4158, 761, 558, 1145, 1166
4159, 1140, 107, 329, 102
4160, 102, 1140, 100, 329
4161, 1141, 424, 977, 449
4162, 1141, 424, 449, 313
4163, 449, 1141, 392, 977
4164, 313, 1141, 270, 449
4165, 1141, 270, 449, 392
4166, 1161, 1172, 684, 765
4167, 1162, 984, 705, 1142
4168, 764, 818, 835, 1142
4169, 90, 469, 920, 1022
4170, 832, 836, 1174, 1160
4171, 1174, 834, 681, 836
4172, 90, 89, 88, 920
4173, 1174, 834, 836, 683
4174, 333, 364, 414, 1036
4175, 1143, 1147, 297, 373
*ELSET,ELSET=CFC
1, 2, 3, 4, 5, 6, 7, 8, 9, 10, 
11, 12, 13, 14, 15, 16, 17, 18, 19, 20, 
21, 22, 23, 24, 25, 26, 27, 28, 29, 30, 
31, 32, 33, 34, 35, 36, 37, 38, 39, 40, 
41, 42, 43, 44, 45, 46, 47, 48, 49, 50, 
51, 52, 53, 54, 55, 56, 57, 58, 59, 60, 
61, 62, 63, 64, 65, 66, 67, 68, 69, 70, 
71, 72, 73, 74, 75, 76, 77, 78, 79, 80, 
81, 82, 83, 84, 85, 86, 87, 88, 89, 90, 
91, 92, 93, 94, 95, 96, 97, 98, 99, 100, 
101, 102, 103, 104, 105, 106, 107, 108, 109, 110, 
111, 112, 113, 114, 115, 116, 117, 118, 119, 120, 
121, 122, 123, 124, 125, 126, 127, 128, 129, 130, 
131, 132, 133, 134, 135, 136, 137, 138, 139, 140, 
141, 142, 143, 144, 145, 146, 147, 148, 149, 150, 
151, 152, 153, 154, 155, 156, 157, 158, 159, 160, 
161, 162, 163, 164, 165, 166, 167, 168, 169, 170, 
171, 172, 173, 174, 175, 176, 177, 178, 179, 180, 
181, 182, 183, 184, 185, 186, 187, 188, 189, 190, 
191, 192, 193, 194, 195, 196, 197, 198, 199, 200, 
201, 202, 203, 204, 205, 206, 207, 208, 209, 210, 
211, 212, 213, 214, 215, 216, 217, 218, 219, 220, 
221, 222, 223, 224, 225, 226, 227, 228, 229, 230, 
231, 232, 233, 234, 235, 236, 237, 238, 239, 240, 
241, 242, 243, 244, 245, 246, 247, 248, 249, 250, 
251, 252, 253, 254, 255, 256, 257, 258, 259, 260, 
261, 262, 263, 264, 265, 266, 267, 268, 269, 270, 
271, 272, 273, 274, 275, 276, 277, 278, 279, 280, 
281, 282, 283, 284, 285, 286, 287, 288, 289, 290, 
291, 292, 293, 294, 295, 296, 297, 298, 299, 300, 
301, 302, 303, 304, 305, 306, 307, 308, 309, 310, 
311, 312, 313, 314, 315, 316, 317, 318, 319, 320, 
321, 322, 323, 324, 325, 326, 327, 328, 329, 330, 
331, 332, 333, 334, 335, 336, 337, 338, 339, 340, 
341, 342, 343, 344, 345, 346, 347, 348, 349, 350, 
351, 352, 353, 354, 355, 356, 357, 358, 359, 360, 
361, 362, 363, 364, 365, 366, 367, 368, 369, 370, 
371, 372, 373, 374, 375, 376, 377, 378, 379, 380, 
381, 382, 383, 384, 385, 386, 387, 388, 389, 390, 
391, 392, 393, 394, 395, 396, 397, 398, 399, 400, 
401, 402, 403, 404, 405, 406, 407, 408, 409, 410, 
411, 412, 413, 414, 415, 416, 417, 418, 419, 420, 
421, 422, 423, 424, 425, 426, 427, 428, 429, 430, 
431, 432, 433, 434, 435, 436, 437, 438, 439, 440, 
441, 442, 443, 444, 445, 446, 447, 448, 449, 450, 
451, 452, 453, 454, 455, 456, 457, 458, 459, 460, 
461, 462, 463, 464, 465, 466, 467, 468, 469, 470, 
471, 472, 473, 474, 475, 476, 477, 478, 479, 480, 
481, 482, 483, 484, 485, 486, 487, 488, 489, 490, 
491, 492, 493, 494, 495, 496, 497, 498, 499, 500, 
501, 502, 503, 504, 505, 506, 507, 508, 509, 510, 
511, 512, 513, 514, 515, 516, 517, 518, 519, 520, 
521, 522, 523, 524, 525, 526, 527, 528, 529, 530, 
531, 532, 533, 534, 535, 536, 537, 538, 539, 540, 
541, 542, 543, 544, 545, 546, 547, 548, 549, 550, 
551, 552, 553, 554, 555, 556, 557, 558, 559, 560, 
561, 562, 563, 564, 565, 566, 567, 568, 569, 570, 
571, 572, 573, 574, 575, 576, 577, 578, 579, 580, 
581, 582, 583, 584, 585, 586, 587, 588, 589, 590, 
591, 592, 593, 594, 595, 596, 597, 598, 599, 600, 
601, 602, 603, 604, 605, 606, 607, 608, 609, 610, 
611, 612, 613, 614, 615, 616, 617, 618, 619, 620, 
621, 622, 623, 624, 625, 626, 627, 628, 629, 630, 
631, 632, 633, 634, 635, 636, 637, 638, 639, 640, 
641, 642, 643, 644, 645, 646, 647, 648, 649, 650, 
651, 652, 653, 654, 655, 656, 657, 658, 659, 660, 
661, 662, 663, 664, 665, 666, 667, 668, 669, 670, 
671, 672, 673, 674, 675, 676, 677, 678, 679, 680, 
681, 682, 683, 684, 685, 686, 687, 688, 689, 690, 
691, 692, 693, 694, 695, 696, 697, 698, 699, 700, 
701, 702, 703, 704, 705, 706, 707, 708, 709, 710, 
711, 712, 713, 714, 715, 716, 717, 718, 719, 720, 
721, 722, 723, 724, 725, 726, 727, 728, 729, 730, 
731, 732, 733, 734, 735, 736, 737, 738, 739, 740, 
741, 742, 743, 744, 745, 746, 747, 748, 749, 750, 
751, 752, 753, 754, 755, 756, 757, 758, 759, 760, 
761, 762, 763, 764, 765, 766, 767, 768, 769, 770, 
771, 772, 773, 774, 775, 776, 777, 778, 779, 780, 
781, 782, 783, 784, 785, 786, 787, 788, 789, 790, 
791, 792, 793, 794, 795, 796, 797, 798, 799, 800, 
801, 802, 803, 804, 805, 806, 807, 808, 809, 810, 
811, 812, 813, 814, 815, 816, 817, 818, 819, 820, 
821, 822, 823, 824, 825, 826, 827, 828, 829, 830, 
831, 832, 833, 834, 835, 836, 837, 838, 839, 840, 
841, 842, 843, 844, 845, 846, 847, 848, 849, 850, 
851, 852, 853, 854, 855, 856, 857, 858, 859, 860, 
861, 862, 863, 864, 865, 866, 867, 868, 869, 870, 
871, 872, 873, 874, 875, 876, 877, 878, 879, 880, 
881, 882, 883, 884, 885, 886, 887, 888, 889, 890, 
891, 892, 893, 894, 895, 896, 897, 898, 899, 900, 
901, 902, 903, 904, 905, 906, 907, 908, 909, 910, 
911, 912, 913, 914, 915, 916, 917, 918, 919, 920, 
921, 922, 923, 924, 925, 926, 927, 928, 929, 930, 
931, 932, 933, 934, 935, 936, 937, 938, 939, 940, 
941, 942, 943, 944, 945, 946, 947, 948, 949, 950, 
951, 952, 953, 954, 955, 956, 957, 958, 959, 960, 
961, 962, 963, 964, 965, 966, 967, 968, 969, 970, 
971, 972, 973, 974, 975, 976, 977, 978, 979, 980, 
981, 982, 983, 984, 985, 986, 987, 988, 989, 990, 
991, 992, 993, 994, 995, 996, 997, 998, 999, 1000, 
1001, 1002, 1003, 1004, 1005, 1006, 1007, 1008, 1009, 1010, 
1011, 1012, 1013, 1014, 1015, 1016, 1017, 1018, 1019, 1020, 
1021, 1022, 1023, 1024, 1025, 1026, 1027, 1028, 1029, 1030, 
1031, 1032, 1033, 1034, 1035, 1036, 1037, 1038, 1039, 1040, 
1041, 1042, 1043, 1044, 1045, 1046, 1047, 1048, 1049, 1050, 
1051, 1052, 1053, 1054, 1055, 1056, 1057, 1058, 1059, 1060, 
1061, 1062, 1063, 1064, 1065, 1066, 1067, 1068, 1069, 1070, 
1071, 1072, 1073, 1074, 1075, 1076, 1077, 1078, 1079, 1080, 
1081, 1082, 1083, 1084, 1085, 1086, 1087, 1088, 1089, 1090, 
1091, 1092, 1093, 1094, 1095, 1096, 1097, 1098, 1099, 1100, 
1101, 1102, 1103, 1104, 1105, 1106, 1107, 1108, 1109, 1110, 
1111, 1112, 1113, 1114, 1115, 1116, 1117, 1118, 1119, 1120, 
1121, 1122, 1123, 1124, 1125, 1126, 1127, 1128, 1129, 1130, 
1131, 1132, 1133, 1134, 1135, 1136, 1137, 1138, 1139, 1140, 
1141, 1142, 1143, 1144, 1145, 1146, 1147, 1148, 1149, 1150, 
1151, 1152, 1153, 1154, 1155, 1156, 1157, 1158, 1159, 1160, 
1161, 1162, 1163, 1164, 1165, 1166, 1167, 1168, 1169, 1170, 
1171, 1172, 1173, 1174, 1175, 1176, 1177, 1178, 1179, 1180, 
1181, 1182, 1183, 1184, 1185, 1186, 1187, 1188, 1189, 1190, 
1191, 1192, 1193, 1194, 1195, 1196, 1197, 1198, 1199, 1200, 
1201, 1202, 1203, 1204, 1205, 1206, 1207, 1208, 1209, 1210, 
1211, 1212, 1213, 1214, 1215, 1216, 1217, 1218, 1219, 1220, 
1221, 1222, 1223, 1224, 1225, 1226, 1227, 1228, 1229, 1230, 
1231, 1232, 1233, 1234, 1235, 1236, 1237, 1238, 1239, 1240, 
1241, 1242, 1243, 1244, 1245, 1246, 1247, 1248, 1249, 1250, 
1251, 1252, 1253, 1254, 1255, 1256, 1257, 1258, 1259, 1260, 
1261, 1262, 1263, 1264, 1265, 1266, 1267, 1268, 1269, 1270, 
1271, 1272, 1273, 1274, 1275, 1276, 1277, 1278, 1279, 1280, 
1281, 1282, 1283, 1284, 1285, 1286, 1287, 1288, 1289, 1290, 
1291, 1292, 1293, 1294, 1295, 1296, 1297, 1298, 1299, 1300, 
1301, 1302, 1303, 1304, 1305, 1306, 1307, 1308, 1309, 1310, 
1311, 1312, 1313, 1314, 1315, 1316, 1317, 1318, 1319, 1320, 
1321, 1322, 1323, 1324, 1325, 1326, 1327, 1328, 1329, 1330, 
1331, 1332, 1333, 1334, 1335, 1336, 1337, 1338, 1339, 1340, 
1341, 1342, 1343, 1344, 1345, 1346, 1347, 1348, 1349, 1350, 
1351, 1352, 1353, 1354, 1355, 1356, 1357, 1358, 1359, 1360, 
1361, 1362, 1363, 1364, 1365, 1366, 1367, 1368, 1369, 1370, 
1371, 1372, 1373, 1374, 1375, 1376, 1377, 1378, 1379, 1380, 
1381, 1382, 1383, 1384, 1385, 1386, 1387, 1388, 1389, 1390, 
1391, 1392, 1393, 1394, 1395, 1396, 1397, 1398, 1399, 1400, 
1401, 1402, 1403, 1404, 1405, 1406, 1407, 1408, 1409, 1410, 
1411, 1412, 1413, 1414, 1415, 1416, 1417, 1418, 1419, 1420, 
1421, 1422, 1423, 1424, 1425, 1426, 1427, 1428, 1429, 1430, 
1431, 1432, 1433, 1434, 1435, 1436, 1437, 1438, 1439, 1440, 
1441, 1442, 1443, 1444, 1445, 1446, 1447, 1448, 1449, 1450, 
1451, 1452, 1453, 1454, 1455, 1456, 1457, 1458, 1459, 1460, 
1461, 1462, 1463, 1464, 1465, 1466, 1467, 1468, 1469, 1470, 
1471, 1472, 1473, 1474, 1475, 1476, 1477, 1478, 1479, 1480, 
1481, 1482, 1483, 1484, 1485, 1486, 1487, 1488, 1489, 1490, 
1491, 1492, 1493, 1494, 1495, 1496, 1497, 1498, 1499, 1500, 
1501, 1502, 1503, 1504, 1505, 1506, 1507, 1508, 1509, 1510, 
1511, 1512, 1513, 1514, 1515, 1516, 1517, 1518, 1519, 1520, 
1521, 1522, 1523, 1524, 1525, 1526, 1527, 1528, 1529, 1530, 
1531, 1532, 1533, 1534, 1535, 1536, 1537, 1538, 1539, 1540, 
1541, 1542, 1543, 1544, 1545, 1546, 1547, 1548, 1549, 1550, 
1551, 1552, 1553, 1554, 1555, 1556, 1557, 1558, 1559, 1560, 
1561, 1562, 1563, 1564, 1565, 1566, 1567, 1568, 1569, 1570, 
1571, 1572, 1573, 1574, 1575, 1576, 1577, 1578, 1579, 1580, 
1581, 1582, 1583, 1584, 1585, 1586, 1587, 1588, 1589, 1590, 
1591, 1592, 1593, 1594, 1595, 1596, 1597, 1598, 1599, 1600, 
1601, 1602, 1603, 1604, 1605, 1606, 1607, 1608, 1609, 1610, 
1611, 1612, 1613, 1614, 1615, 1616, 1617, 1618, 1619, 1620, 
1621, 1622, 1623, 1624, 1625, 1626, 1627, 1628, 1629, 1630, 
1631, 1632, 1633, 1634, 1635, 1636, 1637, 1638, 1639, 1640, 
1641, 1642, 1643, 1644, 1645, 1646, 1647, 1648, 1649, 1650, 
1651, 1652, 1653, 1654, 1655, 1656, 1657, 1658, 1659, 1660, 
1661, 1662, 1663, 1664, 1665, 1666, 1667, 1668, 1669, 1670, 
1671, 1672, 1673, 1674, 1675, 1676, 1677, 1678, 1679, 1680, 
1681, 1682, 1683, 1684, 1685, 1686, 1687, 1688, 1689, 1690, 
1691, 1692, 1693, 1694, 1695, 1696, 1697, 1698, 1699, 1700, 
1701, 1702, 1703, 1704, 1705, 1706, 1707, 1708, 1709, 1710, 
1711, 1712, 1713, 1714, 1715, 1716, 1717, 1718, 1719, 1720, 
1721, 1722, 1723, 1724, 1725, 1726, 1727, 1728, 1729, 1730, 
1731, 1732, 1733, 1734, 1735, 1736, 1737, 1738, 1739, 1740, 
1741, 1742, 1743, 1744, 1745, 1746, 1747, 1748, 1749, 1750, 
1751, 1752, 1753, 1754, 1755, 1756, 1757, 1758, 1759, 1760, 
1761, 1762, 1763, 1764, 1765, 1766, 1767, 1768, 1769, 1770, 
1771, 1772, 1773, 1774, 1775, 1776, 1777, 1778, 1779, 1780, 
1781, 1782, 1783, 1784, 1785, 1786, 1787, 1788, 1789, 1790, 
1791, 1792, 1793, 1794, 1795, 1796, 1797, 1798, 1799, 1800, 
1801, 1802, 1803, 1804, 1805, 1806, 1807, 1808, 1809, 1810, 
1811, 1812, 1813, 1814, 1815, 1816, 1817, 1818, 1819, 1820, 
1821, 1822, 1823, 1824, 1825, 1826, 1827, 1828, 1829, 1830, 
1831, 1832, 1833, 1834, 1835, 1836, 1837, 1838, 1839, 1840, 
1841, 1842, 1843, 1844, 1845, 1846, 1847, 1848, 1849, 1850, 
1851, 1852, 1853, 1854, 1855, 1856, 1857, 1858, 1859, 1860, 
1861, 1862, 1863, 1864, 1865, 1866, 1867, 1868, 1869, 1870, 
1871, 1872, 1873, 1874, 1875, 1876, 1877, 1878, 1879, 1880, 
1881, 1882, 1883, 1884, 1885, 1886, 1887, 1888, 1889, 1890, 
1891, 1892, 1893, 1894, 1895, 1896, 1897, 1898, 1899, 1900, 
1901, 1902, 1903, 1904, 1905, 1906, 1907, 1908, 1909, 1910, 
1911, 1912, 1913, 1914, 1915, 1916, 1917, 1918, 1919, 1920, 
1921, 1922, 1923, 1924, 1925, 1926, 1927, 1928, 1929, 1930, 
1931, 1932, 1933, 1934, 1935, 1936, 1937, 1938, 1939, 1940, 
1941, 1942, 1943, 1944, 1945, 1946, 1947, 1948, 1949, 1950, 
1951, 1952, 1953, 1954, 1955, 1956, 1957, 1958, 1959, 1960, 
1961, 1962, 1963, 1964, 1965, 1966, 1967, 1968, 1969, 1970, 
1971, 1972, 1973, 1974, 1975, 1976, 1977, 1978, 1979, 1980, 
1981, 1982, 1983, 1984, 1985, 1986, 1987, 1988, 1989, 1990, 
1991, 1992, 1993, 1994, 1995, 1996, 1997, 1998, 1999, 2000, 
2001, 2002, 2003, 2004, 2005, 2006, 2007, 2008, 2009, 2010, 
2011, 2012, 2013, 2014, 2015, 2016, 2017, 2018, 2019, 2020, 
2021, 2022, 2023, 2024, 2025, 2026, 2027, 2028, 2029, 2030, 
2031, 2032, 2033, 2034, 2035, 2036, 2037, 2038, 2039, 2040, 
2041, 2042, 2043, 2044, 2045, 2046, 2047, 2048, 2049, 2050, 
2051, 2052, 2053, 2054, 2055, 2056, 2057, 2058, 2059, 2060, 
2061, 2062, 2063, 2064, 2065, 2066, 2067, 2068, 2069, 2070, 
2071, 2072, 2073, 2074, 2075, 2076, 2077, 2078, 2079, 2080, 
2081, 2082, 2083, 2084, 2085, 2086, 2087, 2088, 2089, 2090, 
2091, 2092, 2093, 2094, 2095, 2096, 2097, 2098, 2099, 2100, 
2101, 2102, 2103, 2104, 2105, 2106, 2107, 2108, 2109, 2110, 
2111, 2112, 2113, 2114, 2115, 2116, 2117, 2118, 2119, 2120, 
2121, 2122, 2123, 2124, 2125, 2126, 2127, 2128, 2129, 2130, 
2131, 2132, 2133, 2134, 2135, 2136, 2137, 2138, 2139, 2140, 
2141, 2142, 2143, 2144, 2145, 2146, 2147, 2148, 2149, 2150, 
2151, 2152, 2153, 2154, 2155, 2156, 2157, 2158, 2159, 2160, 
2161, 2162, 2163, 2164, 2165, 2166, 2167, 2168, 2169, 2170, 
2171, 2172, 2173, 2174, 2175, 2176, 2177, 2178, 2179, 2180, 
2181, 2182, 2183, 2184, 2185, 2186, 2187, 2188, 2189, 2190, 
2191, 2192, 2193, 2194, 2195, 2196, 2197, 2198, 2199, 2200, 
2201, 2202, 2203, 2204, 2205, 2206, 2207, 2208, 2209, 2210, 
2211, 2212, 2213, 2214, 2215, 2216, 2217, 2218, 2219, 2220, 
2221, 2222, 2223, 2224, 2225, 2226, 2227, 2228, 2229, 2230, 
2231, 2232, 2233, 2234, 2235, 2236, 2237, 2238, 2239, 2240, 
2241, 2242, 2243, 2244, 2245, 2246, 2247, 2248, 2249, 2250, 
2251, 2252, 2253, 2254, 2255, 2256, 2257, 2258, 2259, 2260, 
2261, 2262, 2263, 2264, 2265, 2266, 2267, 2268, 2269, 2270, 
2271, 2272, 2273, 2274, 2275, 2276, 2277, 2278, 2279, 2280, 
2281, 2282, 2283, 2284, 2285, 2286, 2287, 2288, 2289, 2290, 
2291, 2292, 2293, 2294, 2295, 2296, 2297, 2298, 2299, 2300, 
2301, 2302, 2303, 2304, 2305, 2306, 2307, 2308, 2309, 2310, 
2311, 2312, 2313, 2314, 2315, 2316, 2317, 2318, 2319, 2320, 
2321, 2322, 2323, 2324, 2325, 2326, 2327, 2328, 2329, 2330, 
2331, 2332, 2333, 2334, 2335, 2336, 2337, 2338, 2339, 2340, 
2341, 2342, 2343, 2344, 2345, 2346, 2347, 2348, 2349, 2350, 
2351, 2352, 2353, 2354, 2355, 2356, 2357, 2358, 2359, 2360, 
2361, 2362, 2363, 2364, 2365, 2366, 2367, 2368, 2369, 2370, 
2371, 2372, 2373, 2374, 2375, 2376, 2377, 2378, 2379, 2380, 
2381, 2382, 2383, 2384, 2385, 2386, 2387, 2388, 2389, 2390, 
2391, 2392, 2393, 2394, 2395, 2396, 2397, 2398, 2399, 2400, 
2401, 2402, 2403, 2404, 2405, 2406, 2407, 2408, 2409, 2410, 
2411, 2412, 2413, 2414, 2415, 2416, 2417, 2418, 2419, 2420, 
2421, 2422, 2423, 2424, 2425, 2426, 2427, 2428, 2429, 2430, 
2431, 2432, 2433, 2434, 2435, 2436, 2437, 2438, 2439, 2440, 
2441, 2442, 2443, 2444, 2445, 2446, 2447, 2448, 2449, 2450, 
2451, 2452, 2453, 2454, 2455, 2456, 2457, 2458, 2459, 2460, 
2461, 2462, 2463, 2464, 2465, 2466, 2467, 2468, 2469, 2470, 
2471, 2472, 2473, 2474, 2475, 2476, 2477, 2478, 2479, 2480, 
2481, 2482, 2483, 2484, 2485, 2486, 2487, 2488, 2489, 2490, 
2491, 2492, 2493, 2494, 2495, 2496, 2497, 2498, 2499, 2500, 
2501, 2502, 2503, 2504, 2505, 2506, 2507, 2508, 2509, 2510, 
2511, 2512, 2513, 2514, 2515, 2516, 2517, 2518, 2519, 2520, 
2521, 2522, 2523, 2524, 2525, 2526, 2527, 2528, 2529, 2530, 
2531, 2532, 2533, 2534, 2535, 2536, 2537, 2538, 2539, 2540, 
2541, 2542, 2543, 2544, 2545, 2546, 2547, 2548, 2549, 2550, 
2551, 2552, 2553, 2554, 2555, 2556, 2557, 2558, 2559, 2560, 
2561, 2562, 2563, 2564, 2565, 2566, 2567, 2568, 2569, 2570, 
2571, 2572, 2573, 2574, 2575, 2576, 2577, 2578, 2579, 2580, 
2581, 2582, 2583, 2584, 2585, 2586, 2587, 2588, 2589, 2590, 
2591, 2592, 2593, 2594, 2595, 2596, 2597, 2598, 2599, 2600, 
2601, 2602, 2603, 2604, 2605, 2606, 2607, 2608, 2609, 2610, 
2611, 2612, 2613, 2614, 2615, 2616, 2617, 2618, 2619, 2620, 
2621, 2622, 2623, 2624, 2625, 2626, 2627, 2628, 2629, 2630, 
2631, 2632, 2633, 2634, 2635, 2636, 2637, 2638, 2639, 2640, 
2641, 2642, 2643, 2644, 2645, 2646, 2647, 2648, 2649, 2650, 
2651, 2652, 2653, 2654, 2655, 2656, 2657, 2658, 2659, 2660, 
2661, 2662, 2663, 2664, 2665, 2666, 2667, 2668, 2669, 2670, 
2671, 2672, 2673, 2674, 2675, 2676, 2677, 2678, 2679, 2680, 
2681, 2682, 2683, 2684, 2685, 2686, 2687, 2688, 2689, 2690, 
2691, 2692, 2693, 2694, 2695, 2696, 2697, 2698, 2699, 2700, 
2701, 2702, 2703, 2704, 2705, 2706, 2707, 2708, 2709, 2710, 
2711, 2712, 2713, 2714, 2715, 2716, 2717, 2718, 2719, 2720, 
2721, 2722, 2723, 2724, 2725, 2726, 2727, 2728, 2729, 2730, 
2731, 2732, 2733, 2734, 2735, 2736, 2737, 2738, 2739, 2740, 
2741, 2742, 2743, 2744, 2745, 2746, 2747, 2748, 2749, 2750, 
2751, 2752, 2753, 2754, 2755, 2756, 2757, 2758, 2759, 2760, 
2761, 2762, 2763, 2764, 2765, 2766, 2767, 2768, 2769, 2770, 
2771, 2772, 2773, 2774, 2775, 2776, 2777, 2778, 2779, 2780, 
2781, 2782, 2783, 2784, 2785, 2786, 2787, 2788, 2789, 2790, 
2791, 2792, 2793, 2794, 2795, 2796, 2797, 2798, 2799, 2800, 
2801, 2802, 2803, 2804, 2805, 2806, 2807, 2808, 2809, 2810, 
2811, 2812, 2813, 2814, 2815, 2816, 2817, 2818, 2819, 2820, 
2821, 2822, 2823, 2824, 2825, 2826, 2827, 2828, 2829, 2830, 
2831, 2832, 2833, 2834, 2835, 2836, 2837, 2838, 2839, 2840, 
2841, 2842, 2843, 2844, 2845, 2846, 2847, 2848, 2849, 2850, 
2851, 2852, 2853, 2854, 2855, 2856, 2857, 2858, 2859, 2860, 
2861, 2862, 2863, 2864, 2865, 2866, 2867, 2868, 2869, 2870, 
2871, 2872, 2873, 2874, 2875, 2876, 2877, 2878, 2879, 2880, 
2881, 2882, 2883, 2884, 2885, 2886, 2887, 2888, 2889, 2890, 
2891, 2892, 2893, 2894, 2895, 2896, 2897, 2898, 2899, 2900, 
2901, 2902, 2903, 2904, 2905, 2906, 2907, 2908, 2909, 2910, 
2911, 2912, 2913, 2914, 2915, 2916, 2917, 2918, 2919, 2920, 
2921, 2922, 2923, 2924, 2925, 2926, 2927, 2928, 2929, 2930, 
2931, 2932, 2933, 2934, 2935, 2936, 2937, 2938, 2939, 2940, 
2941, 2942, 2943, 2944, 2945, 2946, 2947, 2948, 2949, 2950, 
2951, 2952, 2953, 2954, 2955, 2956, 2957, 2958, 2959, 2960, 
2961, 2962, 2963, 2964, 2965, 2966, 2967, 2968, 2969, 2970, 
2971, 2972, 2973, 2974, 2975, 2976, 2977, 2978, 2979, 2980, 
2981, 2982, 2983, 2984, 2985, 2986, 2987, 2988, 2989, 2990, 
2991, 2992, 2993, 2994, 2995, 2996, 2997, 2998, 2999, 3000, 
3001, 3002, 3003, 3004, 3005, 3006, 3007, 3008, 3009, 3010, 
3011, 3012, 3013, 3014, 3015, 3016, 3017, 3018, 3019, 3020, 
3021, 3022, 3023, 3024, 3025, 3026, 3027, 3028, 3029, 3030, 
3031, 3032, 3033, 3034, 3035, 3036, 3037, 3038, 3039, 3040, 
3041, 3042, 3043, 3044, 3045, 3046, 3047, 3048, 3049, 3050, 
3051, 3052, 3053, 3054, 3055, 3056, 3057, 3058, 3059, 3060, 
3061, 3062, 3063, 3064, 3065, 3066, 3067, 3068, 3069, 3070, 
3071, 3072, 3073, 3074, 3075, 3076, 3077, 3078, 3079, 3080, 
3081, 3082, 3083, 3084, 3085, 3086, 3087, 3088, 3089, 3090, 
3091, 3092, 3093, 3094, 3095, 3096, 3097, 3098, 3099, 3100, 
3101, 3102, 3103, 3104, 3105, 3106, 3107, 3108, 3109, 3110, 
3111, 3112, 3113, 3114, 3115, 3116, 3117, 3118, 3119, 3120, 
3121, 3122, 3123, 3124, 3125, 3126, 3127, 3128, 3129, 3130, 
3131, 3132, 3133, 3134, 3135, 3136, 3137, 3138, 3139, 3140, 
3141, 3142, 3143, 3144, 3145, 3146, 3147, 3148, 3149, 3150, 
3151, 3152, 3153, 3154, 3155, 3156, 3157, 3158, 3159, 3160, 
3161, 3162, 3163, 3164, 3165, 3166, 3167, 3168, 3169, 3170, 
3171, 3172, 3173, 3174, 3175, 3176, 3177, 3178, 3179, 3180, 
3181, 3182, 3183, 3184, 3185, 3186, 3187, 3188, 3189, 3190, 
3191, 3192, 3193, 3194, 3195, 3196, 3197, 3198, 3199, 3200, 
3201, 3202, 3203, 3204, 3205, 3206, 3207, 3208, 3209, 3210, 
3211, 3212, 3213, 3214, 3215, 3216, 3217, 3218, 3219, 3220, 
3221, 3222, 3223, 3224, 3225, 3226, 3227, 3228, 3229, 3230, 
3231, 3232, 3233, 3234, 3235, 3236, 3237, 3238, 3239, 3240, 
3241, 3242, 3243, 3244, 3245, 3246, 3247, 3248, 3249, 3250, 
3251, 3252, 3253, 3254, 3255, 3256, 3257, 3258, 3259, 3260, 
3261, 3262, 3263, 3264, 3265, 3266, 3267, 3268, 3269, 3270, 
3271, 3272, 3273, 3274, 3275, 3276, 3277, 3278, 3279, 3280, 
3281, 3282, 3283, 3284, 3285, 3286, 3287, 3288, 3289, 3290, 
3291, 3292, 3293, 3294, 3295, 3296, 3297, 3298, 3299, 3300, 
3301, 3302, 3303, 3304, 3305, 3306, 3307, 3308, 3309, 3310, 
3311, 3312, 3313, 3314, 3315, 3316, 3317, 3318, 3319, 3320, 
3321, 3322, 3323, 3324, 3325, 3326, 3327, 3328, 3329, 3330, 
3331, 3332, 3333, 3334, 3335, 3336, 3337, 3338, 3339, 3340, 
3341, 3342, 3343, 3344, 3345, 3346, 3347, 3348, 3349, 3350, 
3351, 3352, 3353, 3354, 3355, 3356, 3357, 3358, 3359, 3360, 
3361, 3362, 3363, 3364, 3365, 3366, 3367, 3368, 3369, 3370, 
3371, 3372, 3373, 3374, 3375, 3376, 3377, 3378, 3379, 3380, 
3381, 3382, 3383, 3384, 3385, 3386, 3387, 3388, 3389, 3390, 
3391, 3392, 3393, 3394, 3395, 3396, 3397, 3398, 3399, 3400, 
3401, 3402, 3403, 3404, 3405, 3406, 3407, 3408, 3409, 3410, 
3411, 3412, 3413, 3414, 3415, 3416, 3417, 3418, 3419, 3420, 
3421, 3422, 3423, 3424, 3425, 3426, 3427, 3428, 3429, 3430, 
3431, 3432, 3433, 3434, 3435, 3436, 3437, 3438, 3439, 3440, 
3441, 3442, 3443, 3444, 3445, 3446, 3447, 3448, 3449, 3450, 
3451, 3452, 3453, 3454, 3455, 3456, 3457, 3458, 3459, 3460, 
3461, 3462, 3463, 3464, 3465, 3466, 3467, 3468, 3469, 3470, 
3471, 3472, 3473, 3474, 3475, 3476, 3477, 3478, 3479, 3480, 
3481, 3482, 3483, 3484, 3485, 3486, 3487, 3488, 3489, 3490, 
3491, 3492, 3493, 3494, 3495, 3496, 3497, 3498, 3499, 3500, 
3501, 3502, 3503, 3504, 3505, 3506, 3507, 3508, 3509, 3510, 
3511, 3512, 3513, 3514, 3515, 3516, 3517, 3518, 3519, 3520, 
3521, 3522, 3523, 3524, 3525, 3526, 3527, 3528, 3529, 3530, 
3531, 3532, 3533, 3534, 3535, 3536, 3537, 3538, 3539, 3540, 
3541, 3542, 3543, 3544, 3545, 3546, 3547, 3548, 3549, 3550, 
3551, 3552, 3553, 3554, 3555, 3556, 3557, 3558, 3559, 3560, 
3561, 3562, 3563, 3564, 3565, 3566, 3567, 3568, 3569, 3570, 
3571, 3572, 3573, 3574, 3575, 3576, 3577, 3578, 3579, 3580, 
3581, 3582, 3583, 3584, 3585, 3586, 3587, 3588, 3589, 3590, 
3591, 3592, 3593, 3594, 3595, 3596, 3597, 3598, 3599, 3600, 
3601, 3602, 3603, 3604, 3605, 3606, 3607, 3608, 3609, 3610, 
3611, 3612, 3613, 3614, 3615, 3616, 3617, 3618, 3619, 3620, 
3621, 3622, 3623, 3624, 3625, 3626, 3627, 3628, 3629, 3630, 
3631, 3632, 3633, 3634, 3635, 3636, 3637, 3638, 3639, 3640, 
3641, 3642, 3643, 3644, 3645, 3646, 3647, 3648, 3649, 3650, 
3651, 3652, 3653, 3654, 3655, 3656, 3657, 3658, 3659, 3660, 
3661, 3662, 3663, 3664, 3665, 3666, 3667, 3668, 3669, 3670, 
3671, 3672, 3673, 3674, 3675, 3676, 3677, 3678, 3679, 3680, 
3681, 3682, 3683, 3684, 3685, 3686, 3687, 3688, 3689, 3690, 
3691, 3692, 3693, 3694, 3695, 3696, 3697, 3698, 3699, 3700, 
3701, 3702, 3703, 3704, 3705, 3706, 3707, 3708, 3709, 3710, 
3711, 3712, 3713, 3714, 3715, 3716, 3717, 3718, 3719, 3720, 
3721, 3722, 3723, 3724, 3725, 3726, 3727, 3728, 3729, 3730, 
3731, 3732, 3733, 3734, 3735, 3736, 3737, 3738, 3739, 3740, 
3741, 3742, 3743, 3744, 3745, 3746, 3747, 3748, 3749, 3750, 
3751, 3752, 3753, 3754, 3755, 3756, 3757, 3758, 3759, 3760, 
3761, 3762, 3763, 3764, 3765, 3766, 3767, 3768, 3769, 3770, 
3771, 3772, 3773, 3774, 3775, 3776, 3777, 3778, 3779, 3780, 
3781, 3782, 3783, 3784, 3785, 3786, 3787, 3788, 3789, 3790, 
3791, 3792, 3793, 3794, 3795, 3796, 3797, 3798, 3799, 3800, 
3801, 3802, 3803, 3804, 3805, 3806, 3807, 3808, 3809, 3810, 
3811, 3812, 3813, 3814, 3815, 3816, 3817, 3818, 3819, 3820, 
3821, 3822, 3823, 3824, 3825, 3826, 3827, 3828, 3829, 3830, 
3831, 3832, 3833, 3834, 3835, 3836, 3837, 3838, 3839, 3840, 
3841, 3842, 3843, 3844, 3845, 3846, 3847, 3848, 3849, 3850, 
3851, 3852, 3853, 3854, 3855, 3856, 3857, 3858, 3859, 3860, 
3861, 3862, 3863, 3864, 3865, 3866, 3867, 3868, 3869, 3870, 
3871, 3872, 3873, 3874, 3875, 3876, 3877, 3878, 3879, 3880, 
3881, 3882, 3883, 3884, 3885, 3886, 3887, 3888, 3889, 3890, 
3891, 3892, 3893, 3894, 3895, 3896, 3897, 3898, 3899, 3900, 
3901, 3902, 3903, 3904, 3905, 3906, 3907, 3908, 3909, 3910, 
3911, 3912, 3913, 3914, 3915, 3916, 3917, 3918, 3919, 3920, 
3921, 3922, 3923, 3924, 3925, 3926, 3927, 3928, 3929, 3930, 
3931, 3932, 3933, 3934, 3935, 3936, 3937, 3938, 3939, 3940, 
3941, 3942, 3943, 3944, 3945, 3946, 3947, 3948, 3949, 3950, 
3951, 3952, 3953, 3954, 3955, 3956, 3957, 3958, 3959, 3960, 
3961, 3962, 3963, 3964, 3965, 3966, 3967, 3968, 3969, 3970, 
3971, 3972, 3973, 3974, 3975, 3976, 3977, 3978, 3979, 3980, 
3981, 3982, 3983, 3984, 3985, 3986, 3987, 3988, 3989, 3990, 
3991, 3992, 3993, 3994, 3995, 3996, 3997, 3998, 3999, 4000, 
4001, 4002, 4003, 4004, 4005, 4006, 4007, 4008, 4009, 4010, 
4011, 4012, 4013, 4014, 4015, 4016, 4017, 4018, 4019, 4020, 
4021, 4022, 4023, 4024, 4025, 4026, 4027, 4028, 4029, 4030, 
4031, 4032, 4033, 4034, 4035, 4036, 4037, 4038, 4039, 4040, 
4041, 4042, 4043, 4044, 4045, 4046, 4047, 4048, 4049, 4050, 
4051, 4052, 4053, 4054, 4055, 4056, 4057, 4058, 4059, 4060, 
4061, 4062, 4063, 4064, 4065, 4066, 4067, 4068, 4069, 4070, 
4071, 4072, 4073, 4074, 4075, 4076, 4077, 4078, 4079, 4080, 
4081, 4082, 4083, 4084, 4085, 4086, 4087, 4088, 4089, 4090, 
4091, 4092, 4093, 4094, 4095, 4096, 4097, 4098, 4099, 4100, 
4101, 4102, 4103, 4104, 4105, 4106, 4107, 4108, 4109, 4110, 
4111, 4112, 4113, 4114, 4115, 4116, 4117, 4118, 4119, 4120, 
4121, 4122, 4123, 4124, 4125, 4126, 4127, 4128, 4129, 4130, 
4131, 4132, 4133, 4134, 4135, 4136, 4137, 4138, 4139, 4140, 
4141, 4142, 4143, 4144, 4145, 4146, 4147, 4148, 4149, 4150, 
4151, 4152, 4153, 4154, 4155, 4156, 4157, 4158, 4159, 4160, 
4161, 4162, 4163, 4164, 4165, 4166, 4167, 4168, 4169, 4170, 
4171, 4172, 4173, 4174, 4175, 
