*Heading
 C:\Users\CAMILA CASTRO\Documents\SHARON DANIELA\AT_Mesh\Nueva carpeta\Tendon1.inp
*NODE
1, 57.336303710938, 62.235034942627, 7.6179542541504
2, 57.996003479821, 62.514535345516, 7.0000756800043
3, 58.804961086306, 62.784712845226, 6.9189173329301
4, 59.411781911602, 63.238016339793, 7.2790678274756
5, 59.651987061834, 63.833242878535, 6.6006243241844
6, 59.489948181761, 64.682311479084, 6.3702922634495
7, 58.898039155144, 65.473770445851, 6.3617197493235
8, 58.23253708853, 66.08410528204, 6.0393657018747
9, 57.422616031609, 66.506095925222, 6.1216992200766
10, 56.561183389303, 66.831379754657, 6.1388106126146
11, 55.909772234091, 67.180884472448, 5.4733425914461
12, 55.181736065122, 67.468310751336, 5.0276725522087
13, 54.521286073519, 67.708781711651, 4.673280778024
14, 53.711824225372, 67.885476169537, 4.4900369986856
15, 52.861773331861, 67.925699521798, 4.6831498630348
16, 52.013290116926, 67.909867487156, 4.9639498621046
17, 51.155535519271, 67.867955032037, 5.1538826247543
18, 50.374988149292, 68.000322466146, 4.5676593730097
19, 49.513225471352, 68.041319325469, 4.1092323557783
20, 48.669105005798, 68.03238459336, 3.7496591322296
21, 47.890164109355, 68.00143400816, 3.3866673029092
22, 47.058181903468, 67.827072700059, 3.4700846265347
23, 46.393375315371, 67.797029829259, 2.8569488114738
24, 45.644469101562, 67.427671572516, 3.2179545846172
25, 44.84723844541, 66.929518153237, 3.0057798140543
26, 44.453412726886, 66.224091581902, 2.4807323318623
27, 44.683524318915, 65.451129279033, 2.8625640878711
28, 45.530389233244, 65.037913974534, 2.850380634286
29, 46.497978118955, 64.97735470455, 2.6397368999466
30, 47.277127742025, 64.875480601251, 2.9940495160849
31, 47.83512249819, 64.650140954046, 3.765056001069
32, 48.586391826643, 64.495992068943, 4.2632438434061
33, 49.524161092799, 64.409458446818, 4.4301166625444
34, 50.146349774998, 64.217445684937, 5.1848161247777
35, 51.040516729486, 64.095677233747, 5.2715764983273
36, 51.747807547988, 63.855727553227, 5.8787947467339
37, 52.657160264166, 63.768576801628, 5.5293092364408
38, 53.514799109572, 63.571609120994, 5.5977782393423
39, 54.220277197727, 63.227897507369, 6.2096027075669
40, 54.872156521168, 62.869955849973, 6.8735259794157
41, 55.468426298411, 62.476209079679, 7.5675369671056
42, 56.41555937092, 62.342804298962, 7.4463195204564
43, 48.732653506894, 67.887363166167, 4.5092622503672
44, 53.916800161459, 63.053156441431, 7.1006001021726
45, 54.016585102642, 67.619765776029, 5.3745007255069
46, 44.376227605955, 65.557406059138, 3.6354230820514
47, 56.5168718995, 66.663112561131, 6.9795613490975
48, 58.610403033291, 62.31756239317, 8.195946795565
49, 50.066216880347, 63.980466546346, 6.1941337144925
50, 51.892462974555, 63.574862599562, 6.8941197412274
51, 47.847373739591, 64.431286688554, 4.8867260443759
52, 46.632674980613, 67.636717965348, 3.8913623172509
53, 56.992963291548, 61.893179161517, 8.5240646952143
54, 59.426292899485, 63.601131536282, 8.0237007042641
55, 46.04966865661, 64.716390357721, 3.7426224022259
56, 45.22417572256, 67.093043627927, 3.9415931987114
57, 46.951551861351, 64.559846231464, 4.4312931169893
58, 46.951061484445, 64.307154850851, 5.7665504532734
59, 58.65299866072, 65.523117758509, 7.0407982411283
60, 48.135278701191, 64.217533232743, 5.7945774356444
61, 47.633405260791, 64.021218751867, 6.5821828475511
62, 46.431615692272, 64.182840162555, 6.3846423140263
63, 46.94132153853, 64.030104258601, 6.7230801081322
64, 47.347161130341, 63.77974870294, 7.6000691846511
65, 46.328196624102, 63.96517576775, 7.2921950547693
66, 46.528780623213, 63.707719213562, 8.072006789153
67, 47.789318811742, 63.535835303152, 8.520613541467
68, 47.030448956768, 63.556854916918, 8.5276893480807
69, 47.388601035124, 63.375328271761, 9.2456604892482
70, 45.685461205923, 63.798629890518, 8.1914649445709
71, 48.461837826972, 63.367652687044, 9.2160524712648
72, 47.922541868104, 63.201355300688, 9.8367130766747
73, 48.836499470712, 63.128479388943, 10.172774114547
74, 47.068710833808, 63.118333932296, 10.244050071172
75, 45.238308539701, 64.158735300202, 7.353004824497
76, 44.556301002059, 64.204467494671, 8.0987586898383
77, 44.234088979803, 64.730246944741, 7.1635015284423
78, 43.847746720462, 64.976795128185, 8.1798374780322
79, 43.962195474566, 64.456797112437, 8.8471227660182
80, 44.185219640891, 65.408149724843, 9.0274647632927
81, 44.374222542169, 65.8246049928, 8.1509682246803
82, 45.309181298077, 66.148639094617, 9.0196912883478
83, 49.614908405548, 63.357561596024, 9.308125183125
84, 49.99494195533, 63.116658056046, 10.279008730264
85, 49.45285952998, 62.93508677528, 11.010774598477
86, 50.625822811136, 62.892988412331, 11.183010238844
87, 50.013553095476, 62.799546371357, 11.843450343641
88, 51.145246615155, 62.699149465341, 12.141990733599
89, 50.387121964807, 62.549200126928, 12.787908774821
90, 51.396352921801, 62.233561230883, 13.23982933871
91, 50.600926659264, 62.223335703703, 13.562334980996
92, 51.189366577167, 61.929553739441, 14.15867356518
93, 50.314700328168, 62.045153577306, 14.371436180766
94, 51.030543478815, 61.805085200103, 15.050213927676
95, 50.11235512887, 61.922033111429, 15.234217747885
96, 50.902979576616, 61.581614868886, 16.040459563739
97, 49.909445570572, 61.719759160561, 16.140672048559
98, 52.396003273651, 61.104456967303, 15.469686269265
99, 50.442407364072, 61.531283363229, 17.468382928595
100, 49.185326153469, 61.934654424916, 15.51607081926
101, 43.844462015075, 64.725848651576, 9.6260069770064
102, 52.243762007126, 62.266544121599, 12.3468809661
103, 48.965180156716, 62.759696708198, 11.87083083724
104, 50.99721971504, 63.089996648, 10.232472102833
105, 48.984673649283, 61.758420466163, 16.465628203684
106, 48.269376114548, 61.961824580221, 15.74267108214
107, 48.076910499537, 61.82035158587, 16.728759942998
108, 47.158843349599, 62.014192222252, 15.964466505331
109, 47.14961806194, 61.976490609054, 16.987082509348
110, 46.364799085843, 62.083127911757, 16.3091446562
111, 46.062768343689, 62.667113738918, 17.46368840922
112, 44.820598255655, 62.566994116421, 16.509475828972
113, 47.061298852276, 62.506698019066, 17.741596131506
114, 46.680894839239, 63.904014630744, 17.970949245952
115, 46.757549797901, 62.231355821619, 14.936112994723
116, 49.689030803996, 62.326655254022, 13.471813804152
117, 44.195847003082, 63.974840926983, 9.6881528894596
118, 43.748158681529, 64.401548770463, 10.432870983344
119, 44.314809999621, 65.243762334499, 10.306123506735
120, 44.009328958236, 64.870312996563, 11.283628366722
121, 44.733134683517, 65.392698947435, 11.096434404382
122, 43.741872749613, 64.004742900272, 11.202716305753
123, 44.628049645375, 65.215000797187, 12.000724134135
124, 45.593516431321, 65.715694844671, 11.491445977975
125, 45.394316279769, 65.4743067247, 12.468146239677
126, 46.20665465895, 65.780468918175, 12.202790657179
127, 46.674748023906, 66.093935298166, 11.330121612455
128, 47.000348192466, 66.012553270721, 12.075149857242
129, 48.0786535041, 66.476746963683, 11.083696230536
130, 51.621776565247, 67.711599949845, 5.8194020907683
131, 46.828886859493, 65.816525026038, 12.868099013529
132, 44.561342615016, 65.053725880244, 12.945039224463
133, 47.787409796009, 66.086737041007, 12.531890297838
134, 47.487043701126, 65.883269296299, 13.382533266598
135, 48.727055338816, 66.056444413252, 13.495251572342
136, 46.63840185857, 65.668427139509, 13.755076841871
137, 47.4052458259, 65.756425178322, 14.418553975061
138, 46.442733887584, 65.558700226219, 14.702090269767
139, 47.151274592931, 65.652950615748, 15.311607612469
140, 48.273233713733, 65.809802819333, 15.032261286496
141, 47.811144310037, 65.679759530186, 16.011073410579
142, 48.735982280232, 65.764905109723, 15.820477020078
143, 48.407508876351, 65.664469721852, 16.6765738417
144, 49.372424316004, 65.731632490031, 16.394331411788
145, 49.127286189397, 65.624935365, 17.253053418441
146, 50.169961476352, 65.696388510154, 16.83740014289
147, 49.98784871205, 65.565694207448, 17.779062834633
148, 50.898278993962, 65.608956689103, 17.442981362646
149, 51.033377614811, 65.721533358691, 16.440303198067
150, 51.765965132577, 65.59621148167, 17.010733357668
151, 52.715890245939, 65.81640477094, 15.460260655233
152, 49.060299360014, 65.332192853374, 18.156820190776
153, 51.609477262294, 65.47030433862, 18.038318298354
154, 52.466694057266, 65.447978825633, 17.65168903535
155, 52.341105433466, 65.107325023224, 18.591103193482
156, 53.960590216581, 65.12099394403, 17.922074677107
157, 51.413972143194, 64.829430905256, 18.675533859809
158, 52.146104543219, 64.208885819503, 18.771561021582
159, 46.218289927837, 65.491145690291, 15.563447579236
160, 45.545329645302, 65.351855678311, 14.91560892711
161, 51.193253659019, 63.906701010451, 18.749591350712
162, 51.940174656285, 63.275976764658, 18.833656286323
163, 50.493845136694, 67.739972047153, 5.6973032635355
164, 50.911700781888, 67.607680813082, 6.5527125407956
165, 49.905679224675, 67.581877833011, 6.4967708567798
166, 50.39430258249, 67.425454085689, 7.3447390423476
167, 51.324351839271, 67.420323357239, 7.4669095318714
168, 50.865283167629, 67.292617870247, 8.0874628287301
169, 51.749668896344, 67.261159839062, 8.198881840143
170, 51.259145279692, 67.137941779995, 8.7820417336397
171, 52.145924608163, 67.089401232154, 8.846972554705
172, 51.638791407223, 66.947075042594, 9.5524939935925
173, 52.523692988664, 66.863349264882, 9.5402862759777
174, 52.068516154922, 66.833207834166, 10.295046851474
175, 52.9058797729, 66.749809896383, 10.159503566907
176, 53.258149432961, 66.994573013641, 8.7848404643825
177, 52.642297810234, 66.737458931926, 10.976953569202
178, 53.64253405716, 66.607377871927, 10.888606867302
179, 49.448655659058, 67.38274837646, 7.3309134495196
180, 53.450333015439, 66.571002759452, 11.812691466409
181, 54.4415297475, 66.410977969591, 11.515505811437
182, 54.706313247091, 66.389455127654, 10.365852318023
183, 55.425910022816, 66.150091379056, 11.132911330907
184, 55.097395212989, 66.17008417502, 12.11471929338
185, 56.204968263183, 65.799636738079, 11.820625995312
186, 55.818711714516, 65.779147906127, 12.847954393245
187, 56.783367541786, 65.387734998861, 12.534821241925
188, 56.454605685601, 65.368351079187, 13.349696690261
189, 57.277530507539, 64.918829041772, 13.201591797131
190, 56.941367155567, 64.818565986834, 14.084443462705
191, 57.764180129965, 64.240583491046, 13.835136388696
192, 57.353108370842, 64.237832282844, 14.606249579522
193, 57.880706918623, 63.756744462643, 14.508637414785
194, 57.690805553853, 63.576981591587, 15.180259146092
195, 58.61753635009, 62.61674775547, 14.089855962831
196, 57.201751769503, 65.274465349819, 11.415040161213
197, 52.50024201424, 66.641220077353, 11.920469566077
198, 57.045344528132, 64.108201653864, 15.399931561207
199, 57.493872150595, 63.486005347903, 16.005932949288
200, 56.215492894419, 65.209794634434, 14.181242883177
201, 56.791037554993, 64.086248798186, 16.248964833731
202, 57.285411334711, 63.583611627931, 16.970719285756
203, 58.056018816969, 62.748045019944, 16.674463156956
204, 57.709818105214, 63.082414535771, 17.678132936361
205, 58.223107190908, 62.361299556265, 17.568766614587
206, 57.817951647272, 62.370475659271, 18.244163748942
207, 58.298297998082, 61.620085143546, 17.825684482459
208, 57.513891756591, 61.332263297633, 18.480793675227
209, 58.09679092528, 60.615763688514, 18.003071944375
210, 56.970572593253, 60.24457380323, 18.545549827803
211, 57.723004956563, 59.23935316404, 17.459942448864
212, 56.64744016029, 61.104708324266, 18.721549587697
213, 56.047518409025, 59.997780750679, 18.598772675549
214, 52.855506407909, 63.589465496491, 18.853551933612
215, 52.671078846404, 62.639268846702, 18.896302539903
216, 57.068290327419, 63.15001591816, 18.366427151779
217, 54.861574119745, 66.055162443145, 12.982929049506
218, 50.461752431571, 67.15612065904, 8.6580184454296
219, 53.591934889198, 62.961796049862, 18.909190779272
220, 53.448571172515, 62.028323006083, 18.891984697741
221, 51.093642647858, 66.885103348436, 10.227437425709
222, 55.812101748323, 66.046073436196, 10.240204011292
223, 55.305589514377, 66.363662906023, 9.3762490942383
224, 56.295825507071, 66.062995353573, 9.2728548129126
225, 52.439811614545, 67.605746564125, 6.3137918299575
226, 58.479517424227, 60.961032432856, 17.181475763378
227, 52.570128821583, 61.705612524133, 18.743243005856
228, 53.281686731191, 61.124278913415, 18.585763401634
229, 52.527541977665, 61.002025994852, 18.102819923072
230, 53.250015292665, 60.477902468378, 17.856650551491
231, 48.259541111359, 63.707001970999, 7.8061510252559
232, 49.234103681221, 65.903344884908, 14.927601463329
233, 48.877939615423, 67.516907014947, 6.4318311854742
234, 48.488710595586, 67.297977671145, 7.287790383465
235, 47.875652164788, 67.380067014133, 6.4864811568344
236, 47.517465372154, 67.167432020299, 7.3149491332205
237, 46.928219159091, 67.195724465582, 6.6652092890101
238, 48.080498100237, 67.075094565155, 8.1406733868973
239, 56.468066014971, 64.208305552492, 17.112332348151
240, 56.048449662466, 64.583412562985, 16.336707809722
241, 45.272222582574, 65.283670551788, 15.780357920341
242, 44.553279744669, 65.039701097388, 14.987666841381
243, 54.357626485216, 62.322303626419, 18.945652946619
244, 54.466462339565, 63.302046241879, 18.855525061454
245, 48.553470765931, 62.106244907477, 14.799455250883
246, 44.467905262402, 66.392046924576, 3.6845502617587
247, 44.606948514194, 66.547795163423, 4.6637049689029
248, 44.328032849198, 64.964664865179, 16.00079215718
249, 45.164840833766, 65.147719706655, 16.64633615343
250, 47.484134413039, 65.55257434055, 16.858313263801
251, 43.821289474995, 64.674907063616, 15.288055752312
252, 43.770693618405, 64.562964179568, 14.386559926114
253, 43.337178488443, 64.156718677848, 14.986893253402
254, 43.282996721241, 63.840020991737, 13.98746079713
255, 43.37679412427, 63.375438035431, 14.784249669056
256, 43.825300975036, 63.042783288242, 13.727654327066
257, 44.147250353174, 62.799479991094, 14.602069508561
258, 44.674619149818, 62.690977744558, 13.707977422178
259, 44.340000707092, 63.076257855191, 12.856795730171
260, 45.387479682861, 62.788163493555, 12.817968581673
261, 47.112716597505, 66.92095968295, 8.0972919738785
262, 47.648200979341, 66.820140700592, 8.9604916809314
263, 57.905472283486, 64.486592593168, 12.721848734139
264, 43.74468919272, 63.011881204443, 15.509025254776
265, 44.322569968687, 64.574836675557, 16.774776299939
266, 45.028989721538, 64.492965461918, 6.4172006348667
267, 44.265387162072, 65.143914876268, 5.9632844350536
268, 50.915106548447, 63.778112958857, 6.6667228573794
269, 51.10211381485, 63.625777343751, 7.5185619978201
270, 52.008290113695, 63.429672384091, 7.8588459970192
271, 45.097137069638, 64.793303495232, 5.3177644869715
272, 44.881065909182, 63.086594549138, 11.963654767161
273, 45.814496526474, 62.886440962582, 11.762599566205
274, 46.314448542779, 62.735923769052, 12.434981792609
275, 45.263605411151, 63.190245427987, 10.961033751012
276, 55.274016300424, 62.628408733385, 18.894362884574
277, 55.478882227505, 63.701381217922, 18.625584623453
278, 53.264055558975, 66.395924864447, 12.681794269321
279, 52.370348065628, 66.403995286019, 12.852055321749
280, 51.581366197975, 66.571874527207, 12.259116505765
281, 51.386571519297, 66.324675109754, 13.137457174038
282, 50.725861415125, 66.481266561205, 12.414874358227
283, 53.080833076833, 66.185389074235, 13.64516575086
284, 52.426551570837, 61.839192523005, 13.222891725756
285, 53.296561247228, 61.638347986822, 12.335881538686
286, 52.975757747387, 62.094882796151, 11.48765230172
287, 54.009348356377, 61.652636142146, 11.218595051802
288, 54.226911123177, 61.225093393955, 12.061443085136
289, 55.068760723124, 61.137642953708, 11.432041192408
290, 55.082632519002, 60.862795347057, 12.178350427028
291, 54.699184619201, 60.800055823155, 12.880400014439
292, 55.662171437433, 60.586064240599, 12.75766065164
293, 55.112534354917, 60.493710550834, 13.538670965767
294, 55.872645869047, 60.351180720412, 13.511120419586
295, 56.605011184091, 60.57406860047, 12.27913110217
296, 55.501013007858, 60.172502509647, 14.125828148501
297, 56.354199531176, 60.104546671302, 14.059010291415
298, 55.955974206093, 59.792681365757, 14.700132816436
299, 56.917263761473, 59.803166932133, 14.683247825969
300, 53.728269123005, 62.118675990511, 10.417841930862
301, 55.023232292609, 59.965658063448, 14.804410599221
302, 55.435371334277, 59.575729037428, 15.446854071082
303, 54.538679272494, 59.813844614603, 15.587338566252
304, 54.27136886992, 60.782358652131, 13.545269130051
305, 54.947190965937, 59.453471502759, 16.267909468162
306, 55.854173287427, 59.200904025255, 16.202945127094
307, 57.244528061579, 60.300235627921, 13.826253426576
308, 57.722259386031, 60.127504616389, 14.543006227938
309, 57.577619510195, 59.670116977639, 15.324007167181
310, 58.155326770298, 60.165870829809, 15.131851674212
311, 58.207076697817, 59.962653818031, 16.050577075951
312, 46.108829785506, 66.087851034853, 10.563608483848
313, 55.494699897653, 64.685922420805, 17.359713077155
314, 55.195504812628, 64.984169810203, 16.411592111045
315, 52.883173766303, 63.291795786235, 7.2178820167008
316, 52.850984245531, 63.164598019584, 8.140674421891
317, 45.423359651846, 67.042626447658, 4.9335952122335
318, 49.180186845507, 64.165200180896, 5.7646529705181
319, 50.968255843416, 62.947328695911, 18.757272610038
320, 50.167555795831, 63.622075081662, 18.668939364583
321, 54.035709873709, 60.566996890085, 18.459784059098
322, 51.234214554373, 63.527805119416, 8.3319060504843
323, 50.410977489544, 63.640954574437, 7.9899503429524
324, 48.872499743875, 61.778912626002, 17.440305800636
325, 46.775573437142, 66.647539542191, 8.8968668682216
326, 54.127339992312, 60.225584672808, 14.972475777981
327, 54.079501015178, 59.80008286349, 16.404611257317
328, 48.640962715213, 66.965982160727, 8.9904587060784
329, 55.529399879725, 67.178487537878, 5.9783477868731
330, 54.705748581705, 67.429439667938, 5.6212620004969
331, 54.20375112816, 67.401382929295, 6.4075715476725
332, 47.23334942811, 67.421365321046, 5.6847584110108
333, 49.964839266408, 62.644689949979, 18.559697380045
334, 49.131089590438, 63.279728770339, 18.519507300941
335, 46.149012772017, 62.545519505468, 13.293522712777
336, 47.058081278696, 62.504349385991, 13.17200301349
337, 47.193932703178, 62.724602664591, 11.894273093979
338, 52.639184330337, 60.659734715432, 17.160017979067
339, 55.387586747958, 59.101594369529, 17.020761563988
340, 58.110905515852, 60.660807291914, 13.666689338676
341, 47.25540092914, 66.583983529447, 9.6643035489252
342, 57.463766043524, 59.30823264748, 16.11118789508
343, 56.413634052157, 58.887350554524, 17.029287495189
344, 58.479239667607, 60.789466040129, 15.44523515407
345, 52.551568850139, 62.609911637796, 10.528593788949
346, 45.260765012579, 64.591083647498, 17.324527548395
347, 50.37897522452, 66.243003343261, 13.305556565044
348, 51.035809560065, 66.113916939775, 14.05847994954
349, 55.897915937059, 66.448475552543, 8.4735154000754
350, 56.769645115097, 66.122447100349, 8.480687340789
351, 57.200954702521, 65.683078279312, 9.2175438172912
352, 54.952359593535, 66.74203169401, 8.449382203368
353, 57.96045222442, 66.044075853039, 6.8955685959945
354, 45.024350068646, 62.515639834019, 14.696964726541
355, 44.834045703288, 66.647363707439, 5.6734697761132
356, 46.522724269326, 63.376680791936, 9.379027955896
357, 47.93234564865, 67.779859821362, 4.4705420266901
358, 57.659737439622, 65.723314780654, 8.4234894817316
359, 58.075953016062, 65.217411917491, 9.0925364638012
360, 57.685534609116, 65.239593673742, 9.8004751441081
361, 58.348011059999, 64.697069024394, 9.8935955680547
362, 55.130538121181, 61.613157710989, 18.902009305998
363, 53.235981666289, 62.666533419024, 9.514578640686
364, 54.219772624505, 62.341718838317, 9.2645264886622
365, 56.035819741636, 61.903793557713, 8.7715984774854
366, 54.501012118848, 62.662298571132, 7.8726771834866
367, 55.535132900756, 62.198082870725, 8.2635762121915
368, 49.876704039516, 65.137673862474, 18.472082922677
369, 47.277047366863, 67.710398146651, 4.2434459689158
370, 45.29995492714, 65.321601604665, 13.408745515301
371, 58.370354724585, 63.743889821186, 13.156905755679
372, 58.455964671457, 63.906872834774, 12.094017433426
373, 58.758139398878, 63.108607728127, 12.531461531633
374, 58.896182133694, 63.253864032481, 11.401045098828
375, 59.001663631031, 62.466793875852, 11.871828309127
376, 59.126000656189, 62.506589695706, 10.8282003516
377, 58.817704719464, 61.745298730875, 11.151263189334
378, 58.747245992249, 61.905886929451, 10.261570455429
379, 58.082568074647, 61.477863629972, 10.527987592261
380, 59.182319073744, 62.610384591341, 9.7397863923482
381, 58.76908349599, 61.46588719962, 11.995741724704
382, 49.377499324682, 63.881112015049, 6.840097409735
383, 54.677126207486, 61.931328618861, 9.9014892127395
384, 58.458931506592, 64.116533762098, 11.257869472083
385, 46.209492351631, 66.733990176677, 8.0394553097528
386, 55.822868415413, 64.918668606417, 15.528775191606
387, 54.993087959435, 65.284183653311, 15.508386854264
388, 54.331234000736, 65.35787728412, 16.14963869332
389, 54.164689010218, 65.613312148583, 15.16888405339
390, 43.832843619681, 64.589596981718, 12.146456004639
391, 44.597058729645, 63.809979389027, 17.163053882455
392, 50.311100495466, 65.815038809997, 15.841134943873
393, 51.1687098993, 65.898919366338, 15.420577751263
394, 48.195109436647, 66.771786086597, 9.6570914532252
395, 49.219840398488, 66.895204737703, 9.6706794754722
396, 49.809233034394, 66.360057068005, 12.604317982876
397, 50.176493929119, 66.642086759428, 11.683264336802
398, 46.082967614301, 64.581859080962, 4.932221448791
399, 52.550831254892, 61.445283298291, 14.021851191688
400, 46.063596193585, 65.144944660408, 17.156397762424
401, 51.647020026444, 62.827091331533, 10.808537322629
402, 49.292867231571, 66.521301503456, 11.768990538294
403, 48.080728124084, 65.478961409417, 17.543942189312
404, 48.270480230286, 64.820559764743, 18.269059032588
405, 51.759786790122, 61.478727574029, 18.326528376295
406, 43.778453437992, 63.839520758452, 16.612415314493
407, 58.566309765114, 65.214459460706, 8.0989046984043
408, 44.185626594981, 65.784511308198, 4.4855910549296
409, 52.335570481332, 63.017930164202, 9.4654284780478
410, 57.947758023699, 61.723431655097, 9.7017660297733
411, 57.174891555898, 61.460054767774, 10.027375447449
412, 57.224371864786, 61.131679154732, 10.833546298523
413, 56.40252609413, 61.312665228971, 10.360518951771
414, 54.180869184207, 66.664628169307, 9.2921922625754
415, 47.969493671599, 62.614058921902, 12.554392172664
416, 47.995540882657, 62.385280362191, 13.45626040594
417, 47.328159400148, 62.266878702713, 14.151493627916
418, 45.69739074789, 63.663388638455, 17.64341179289
419, 53.667418247935, 62.74326235406, 8.6674559275555
420, 45.052167053207, 64.975715657171, 3.659040060335
421, 47.997829678024, 63.014013169067, 10.622552131918
422, 48.346015794194, 67.646142263397, 5.4383332104958
423, 50.410464706315, 65.966640445075, 14.875324125735
424, 56.74514770833, 65.694510297353, 9.9655105274108
425, 58.785064758143, 64.583427737631, 9.0090695195753
426, 54.657475236275, 64.235818712918, 18.621124193277
427, 58.112711563833, 62.879013760937, 15.556533069142
428, 58.39355898627, 62.109312063384, 16.004970549793
429, 52.202590321831, 66.204146702309, 13.707103420992
430, 45.686007198747, 66.994968315714, 5.888667821241
431, 45.196359042753, 66.722801749526, 6.4961081730327
432, 54.380692147883, 65.127094414526, 17.145108985372
433, 53.615310058768, 65.395982679101, 16.625526943369
434, 59.120981348548, 63.237776138405, 10.325069952904
435, 59.271480689146, 63.280887883858, 9.5130288080024
436, 55.81923888686, 58.987713225916, 17.829727249073
437, 54.982254217666, 59.268081873172, 17.796066167186
438, 48.812262410817, 64.344449085571, 5.0598510867479
439, 54.811425447783, 65.58866223484, 14.63032793908
440, 47.039011943063, 65.110393162611, 17.757431486532
441, 44.826270212008, 63.871806693414, 8.996224362767
442, 45.026813635776, 63.527001467299, 9.7989191396317
443, 43.949873323312, 63.52553103137, 11.976598077348
444, 49.553086758089, 66.74812003333, 10.781025688066
445, 52.870415599341, 65.969774528262, 14.52566707454
446, 53.357273030797, 61.205720977517, 13.544386126381
447, 56.942158527393, 62.117126280212, 18.68499549207
448, 51.90356336973, 66.003143056681, 14.624041426168
449, 52.700670419452, 65.56305031305, 16.582522996478
450, 56.251211307284, 60.933971505107, 11.188329537661
451, 53.126941582036, 61.035789176143, 14.284984580392
452, 49.077853495167, 63.578618966354, 8.3637136041958
453, 47.942398696541, 62.014372305675, 17.710732074918
454, 48.137736077961, 62.835786919679, 18.215281584718
455, 48.947996665999, 62.331091034354, 18.2186931068
456, 43.932338169972, 65.471773121069, 6.7248362249297
457, 57.918759120802, 59.428861058773, 16.744623741171
458, 49.324845192493, 64.363710421784, 18.527849892766
459, 56.004927528915, 64.20975389004, 17.993629698032
460, 43.783227704795, 64.505313013735, 13.439999870799
461, 44.472866236087, 64.960625384118, 13.993133138444
462, 46.570624194782, 62.964910595052, 11.015393650886
463, 45.982620443868, 63.234327070577, 10.152991330054
464, 58.876759763698, 62.228606385119, 12.773339065552
465, 52.098149456081, 63.288010579358, 8.6572411463149
466, 56.601825140082, 58.885010026122, 17.886899005273
467, 53.865186605534, 65.905215857226, 14.385437343825
468, 48.277233594935, 63.819746330565, 18.374682272654
469, 44.247464463451, 63.117571610725, 16.725495597652
470, 59.131762741201, 64.849179127803, 7.4262470319195
471, 56.450532929168, 61.672080571352, 9.4273846538573
472, 49.913111702441, 66.061173528127, 14.123998487192
473, 44.929110845777, 65.80556020379, 9.5451161663244
474, 48.854161925831, 62.505999078639, 12.949057832543
475, 56.25172364355, 62.854292680876, 18.755703555759
476, 57.556431683999, 60.604547891306, 12.84593934972
477, 56.564814406883, 59.398269088849, 15.447364006576
478, 51.568805285306, 66.786990860992, 11.140250532685
479, 53.97294980896, 59.833170458819, 17.61342319249
480, 58.556507136996, 61.228320811078, 13.034659353802
481, 58.68130424133, 61.49956083684, 14.016318223066
482, 51.826051726766, 61.108262467396, 17.378153287479
483, 51.932785363646, 61.152470285892, 16.364091078818
484, 46.257543751913, 67.265680181364, 5.3002077345269
485, 53.062901677126, 64.484419098806, 18.757630698033
486, 55.627086270928, 66.840600093031, 7.4700625969836
487, 54.665167249158, 67.098958815291, 7.4163256605407
488, 54.015956816109, 67.024356639358, 8.2249394626275
489, 53.253984897139, 67.240650600926, 7.77878359273
490, 58.31251436569, 60.033796380845, 17.17383171173
491, 55.592093434928, 61.676254711946, 9.7749448200525
492, 57.9624373084, 64.612254376318, 11.625614223295
493, 57.952781437922, 64.800799020969, 10.743157469966
494, 52.873135744503, 60.621456243038, 16.122558691245
495, 53.206651372322, 60.693845925867, 15.062841888222
496, 52.352914539727, 67.420514827368, 7.3845355771179
497, 53.215614428924, 67.497145617912, 6.741681180504
498, 53.083555804241, 67.659840565667, 5.656018006469
499, 44.383116219258, 63.628327924321, 10.497779875043
500, 51.316837102995, 63.258156069719, 9.3947428580079
501, 57.988140115035, 61.13470500445, 11.321561422456
502, 50.458418031067, 63.453209465443, 8.8584410289533
503, 50.785194503278, 61.900668809393, 18.430601854568
504, 49.37960518433, 67.777163743847, 5.2946165297093
505, 51.756903168052, 62.305176475642, 18.782504558836
506, 58.528080763201, 62.280606068728, 14.867322512165
507, 44.663893371472, 62.564486243721, 15.553969201744
508, 45.450189516834, 62.392438978314, 15.297586161417
509, 58.622170336913, 62.108867715201, 9.1232773327463
510, 48.776818646074, 66.204644520933, 12.779803796116
511, 45.701458803127, 66.120849700987, 9.7037740678068
512, 53.438120118253, 63.34706027743, 6.4406425389682
513, 54.75225780852, 64.841780975526, 17.916790458709
514, 48.165457143341, 65.91328228817, 14.013626416029
515, 43.212371275508, 63.683125121671, 15.781080747263
516, 53.657744467535, 60.202751443874, 15.722823924048
517, 47.669980624003, 62.137431777573, 14.996125552873
518, 44.300058186326, 66.185784313058, 6.2916204450498
519, 44.151255964608, 65.972425988807, 5.4177764379575
520, 47.519100911311, 64.206961535452, 18.191577718839
521, 55.106685963456, 62.044974652892, 9.141980290015
522, 58.589628746514, 61.328224588993, 14.779188007785
523, 56.385642835931, 65.762944212899, 10.851830898773
524, 54.216708808397, 61.391084068425, 18.8468260405
525, 56.057406046355, 61.819008751941, 18.848039434003
526, 43.470963025682, 63.718146175477, 12.799426041927
527, 50.687835825726, 67.005796416632, 9.3953095571888
528, 45.382263158638, 64.770653126098, 4.4587756704473
529, 49.418669132656, 62.111068917584, 14.411232352013
530, 47.997322011546, 62.78794032882, 11.566867595043
531, 52.69454690208, 63.576667858285, 6.2260965741065
532, 53.375889618073, 60.154831308473, 16.861920097747
533, 46.454192106209, 62.334797827937, 14.046309497904
534, 49.081147133262, 67.177835854521, 8.1733983557357
535, 53.767138755864, 63.885484513332, 18.798225687645
536, 48.662047712833, 66.709792418783, 10.357563923178
537, 46.578674519832, 67.001375127961, 7.346041858229
538, 45.88378034947, 64.43606955726, 5.8531621097401
539, 54.19781755136, 66.335767316277, 12.431098454268
540, 56.490733687778, 64.722090162983, 14.929942075107
541, 51.88940567805, 65.774703265969, 15.94985306075
542, 45.620548102708, 66.725496779939, 7.3980026038267
543, 45.223176993364, 66.321476781672, 8.2694205831127
544, 44.564103296725, 66.183257181957, 7.3836448848749
545, 48.511723347316, 63.968511319163, 6.6194513356303
546, 49.701319947307, 61.637037754235, 17.087897548627
547, 49.740416423922, 61.826762023981, 18.014394526964
548, 53.488041972982, 65.631272205402, 15.864752971875
549, 59.271763752329, 62.86815840299, 8.8286494929433
550, 59.140294295885, 62.832319329068, 7.7528468061036
551, 57.311653778549, 59.077645396681, 16.713275503749
552, 54.860389179863, 60.852058316778, 18.763137387296
553, 54.972430152173, 59.98555478234, 18.489258084796
554, 55.764655668668, 60.813052228971, 18.774962182561
555, 53.850399838478, 67.308857134386, 7.2375610224622
556, 58.229815393445, 63.125590409014, 14.709210228029
557, 50.695627001652, 65.372267192169, 18.360755907012
558, 55.628993934759, 65.240167635215, 14.781015145921
559, 55.50253830022, 65.643727861511, 13.831913550461
560, 59.167673137155, 64.424991235046, 8.1681275183305
561, 46.863553671291, 66.346211897537, 10.366396120481
562, 44.350947988245, 65.282198071981, 5.1400972438902
563, 56.783407538325, 63.796412632615, 17.781068384276
564, 54.654210294565, 60.386885382938, 14.158830605109
565, 53.715270846112, 66.628389328676, 10.024756613687
566, 44.171225980223, 62.779118000546, 16.098911623054
567, 45.159338195008, 62.924253289299, 17.212538018275
568, 56.666023779041, 59.110880888708, 16.220790577059
569, 58.046246868835, 60.902662709329, 12.144696374086
570, 46.105439826461, 64.535436630188, 17.688077357863
571, 50.208678845078, 63.767800912242, 7.1040525707928
572, 58.464513407895, 60.589076557999, 16.479346575065
573, 44.42112167929, 63.418701702017, 11.32397034708
574, 47.339419839931, 63.383547736147, 18.120872490188
575, 53.97236968341, 66.140314997381, 13.421241473036
576, 55.104588279599, 67.171689615369, 6.6699196915734
577, 57.237805971657, 66.236253723653, 7.5194077348587
578, 58.500765093859, 61.389804451133, 16.257482242229
579, 50.471920211371, 63.277144678245, 9.627110340283
580, 56.610899709314, 60.423293249005, 13.169088215321
581, 50.007219933211, 67.279553928749, 8.0155575038173
582, 45.554316745395, 62.456582625515, 13.941603687924
583, 55.589456559251, 61.27376213071, 10.717925091697
584, 50.473044373034, 64.515745191808, 18.638905574186
585, 57.288505683483, 60.826376224333, 11.658948368558
586, 53.931282036414, 64.727509071101, 18.623811535079
587, 43.717270426257, 63.172778740494, 16.205685775904
588, 47.579536278301, 66.23793240189, 11.652702132067
589, 56.352994201049, 66.512244515405, 7.7607767294892
590, 54.778256548132, 61.549754135321, 10.65769001114
591, 44.676827631971, 65.106892928261, 4.4495781667973
592, 52.828949091881, 62.993355954382, 8.9284184595778
593, 46.949404420178, 65.580112052747, 16.064944363041
594, 49.726950737332, 67.048858004953, 9.0172346604262
595, 50.11002945152, 66.89850819043, 10.027127829673
596, 48.79255507266, 62.266273902758, 13.824809940953
597, 51.661165052406, 61.469460095466, 15.558252618722
598, 46.044046458554, 65.393720285567, 16.369601022867
599, 45.274120687678, 65.773412224733, 10.555530310879
600, 49.615207054217, 63.72515944741, 7.6687958024619
601, 57.868997478849, 62.004942580695, 8.4741098816506
602, 55.783722907151, 60.768048636082, 11.95833261053
603, 54.606366711575, 59.421150025338, 17.015268161335
604, 58.45944175649, 61.747927020109, 16.96444520098
605, 45.846912330455, 65.452495403778, 14.041269935231
606, 46.873351642042, 64.729422915754, 3.5563356416614
607, 56.438983934602, 64.491295759754, 15.654187735066
608, 45.972593825235, 67.405017245125, 4.1417767275408
609, 51.147095381416, 61.363503604006, 16.915253170893
610, 55.541823477535, 59.406677475211, 18.366728490761
611, 56.361797002869, 59.309752196468, 18.357508483885
612, 53.385717499876, 65.328789623966, 17.421984512612
613, 53.207754852967, 65.197874275337, 18.288595159173
614, 46.548230239539, 63.146878564608, 17.844469144774
615, 47.752753968566, 66.562090406385, 10.310375201878
616, 58.678748251613, 62.89856545829, 13.410699829219
617, 58.306886723244, 63.471932163583, 13.980254005598
618, 47.385724434141, 62.898551653539, 11.116293570974
619, 57.262750080551, 65.336875927043, 10.51473715549
620, 50.582569676949, 66.800002011423, 10.892566805503
621, 49.610808658139, 65.826899376883, 15.624712532268
622, 45.773362727254, 64.199553825201, 6.7121393707322
623, 53.945145600714, 61.139232629057, 12.812486464177
624, 48.379418961504, 66.343357776621, 11.878619554743
625, 59.514566294033, 64.131303219226, 7.2908290806592
626, 46.025793586422, 65.576300590158, 13.109654204706
627, 58.066793677555, 62.329942427809, 7.6738087117795
628, 49.610059684866, 62.630521822421, 12.537327872363
629, 51.91124545904, 61.568180307048, 14.702742675327
630, 57.764687282953, 59.767722184381, 18.026329367124
631, 57.164411145525, 59.233724044596, 18.145139674946
632, 46.162241090601, 67.587524709276, 3.4778152174931
633, 58.034235747542, 65.785128539412, 7.6401237477553
634, 58.572926751755, 62.542281676046, 7.530328975877
635, 57.520487769358, 64.943613224969, 12.190710416297
636, 51.969015149401, 62.564121652746, 11.557205829641
637, 49.442961877834, 66.152619760432, 13.408023594637
638, 45.697874847668, 62.33607906201, 16.824641363262
639, 48.979109077677, 65.986989249034, 14.168315972433
640, 45.919038707172, 62.346194950563, 14.689314043142
641, 45.958852894399, 66.442963039852, 8.8186264953601
642, 57.198652224194, 61.707031368193, 9.2293378933356
643, 46.041620511622, 67.002879934454, 6.7128912579681
644, 48.872836166785, 63.807137747058, 7.2945693801912
645, 51.82466341202, 62.98754713712, 10.113571329777
646, 58.540042202332, 61.586068626296, 15.409912355753
647, 45.669290709403, 63.569061185115, 9.2330896097098
648, 43.557036745836, 64.429705900967, 15.966922960371
649, 55.817029278993, 66.967787432063, 6.6950271307808
650, 50.923121537053, 66.68466862004, 11.707203419814
651, 53.542831797744, 62.994146256884, 7.8193847383253
652, 53.435489627352, 65.782568985859, 15.127840749868
653, 59.271410376097, 63.818508797163, 8.9136337843469
654, 52.398972048769, 67.753032922275, 5.4782917984513
655, 58.900290822624, 63.979381677331, 9.9196189098642
656, 56.341497145453, 63.645804921079, 18.388163425272
657, 56.334184689046, 60.565260414011, 18.696372390503
658, 58.535993386119, 64.26860753242, 10.491988047314
659, 46.483786212345, 66.38227693719, 9.6883981087777
660, 48.405848728734, 63.547234218507, 8.4620076939993
661, 58.364548015531, 60.718234904263, 14.517633316979
662, 52.611977714928, 61.171215160016, 14.725931162407
663, 46.190108858976, 62.225944864942, 15.570636912863
664, 55.310933468811, 64.425607677072, 18.192685069629
665, 47.367425470058, 66.359041844629, 10.943407156424
666, 56.476980898513, 62.047204108525, 8.1279265811533
667, 48.075118553501, 63.859672488269, 7.1738284314464
668, 53.45557218169, 67.760640209618, 5.0949624295141
669, 48.833518791775, 66.598124851197, 11.102705980474
670, 52.606773442207, 67.21277421288, 8.221590473942
671, 46.71376038724, 65.44812319354, 16.77070526325
672, 45.454192359055, 62.310318778739, 16.054328519162
673, 48.187207670483, 66.020211530045, 13.271570714123
674, 54.632811358178, 65.911439418238, 13.859672305004
675, 51.100065217503, 65.995316370606, 14.729040042879
676, 51.176942158648, 61.397760008458, 17.766679227827
677, 53.252311273067, 66.771248720302, 9.5362649782674
678, 46.402686931051, 67.172848238219, 6.0769553701349
679, 58.77496578181, 62.079913658594, 13.519588815833
680, 53.792334472219, 60.696046083156, 14.2861219618
681, 49.827685308165, 63.556295828531, 8.4815260780523
682, 57.115791128507, 58.903899857831, 17.412229844522
683, 43.949838826441, 65.483006491455, 7.5630681528578
684, 45.211289933689, 65.251118876636, 14.187100665309
685, 48.086952945999, 62.219319508305, 14.172726033368
686, 54.591025867401, 62.382681923512, 8.6651036185757
687, 50.712196479583, 64.00577964679, 5.888813281439
688, 58.798628743562, 63.770692222594, 10.731625331861
689, 48.634510176996, 62.905761558858, 11.098723772265
690, 46.273180348148, 63.58169361906, 8.6883719942201
691, 51.731923139839, 67.572232045362, 6.7814270445034
692, 49.416063463565, 64.301782672981, 5.0741908839673
693, 51.906155466113, 61.798814239633, 13.877841276892
694, 46.451638769087, 62.138057538316, 17.044370415937
695, 47.000407706608, 67.538994501763, 4.812338146083
696, 50.420315823659, 61.549834792377, 16.741634315963
697, 51.344471440026, 62.756657322071, 11.445507505262
698, 44.77653024558, 65.935931074376, 8.7657908517249
699, 46.490264690018, 62.795964611212, 11.716746377426
700, 44.674335279932, 65.782542520883, 2.0002130096791
701, 56.901121624539, 62.553317007919, 6.7179405834321
702, 49.09063298587, 68.311772896827, 2.8113352200905
703, 54.249095511428, 67.961508512992, 3.8879748750176
704, 51.010025929185, 68.129960460432, 3.9917222666653
705, 55.900130267609, 67.427887108146, 4.5357643872618
706, 58.75853524452, 65.955872015388, 5.2705088658932
707, 45.222293707439, 67.323266136579, 2.6233247943823
708, 46.383087095017, 68.105093890034, 1.7137751219766
709, 48.026023076764, 68.376196868421, 2.0414302335332
710, 59.426173416548, 63.508979036218, 5.7897001354649
711, 57.629846188628, 62.673221583777, 6.215595778887
712, 58.927049521688, 63.004989131448, 6.3109210595616
713, 56.677489797404, 67.045937923694, 5.028800675069
714, 56.727809739283, 67.321850472075, 4.0294014071614
715, 55.919674752035, 67.729552930518, 3.5094001030912
716, 56.802636549678, 67.588435231952, 3.1438290746588
717, 56.114612880749, 67.976448680352, 2.5395866303922
718, 57.001257985565, 67.810978430417, 2.3143142169035
719, 56.331360377395, 68.160056157186, 1.7816079775032
720, 57.341863630478, 68.009117795795, 1.5068879830419
721, 56.600474855144, 68.329477954993, 1.0087192600008
722, 57.324128106192, 68.223298876751, 0.80789704290428
723, 56.956998949976, 68.462295970733, 0.18783885483177
724, 58.610981721739, 67.877441297251, 0.7485355165752
725, 55.935540602599, 68.644048809536, 0.16778479537605
726, 56.53215639931, 68.741426427094, -0.45908324979665
727, 54.996826227205, 68.974338625446, -0.43000120859758
728, 55.832527764755, 68.962642987694, -0.8327545447217
729, 55.097261665567, 69.255854945505, -1.487374349605
730, 54.011525509362, 69.258652912863, -1.1536487050254
731, 54.418298704755, 69.520640192187, -1.9670292907105
732, 55.251314858562, 69.699070636708, -2.582154836633
733, 54.197352732646, 69.883247584739, -2.6590374906549
734, 48.006338654568, 64.950230368813, 2.7502854456751
735, 54.9572994044, 70.068879018727, -3.4374135286256
736, 53.526802940801, 70.378219335238, -3.8325391110248
737, 51.619021860919, 64.115701746202, 4.7916322294441
738, 56.28570717726, 69.617231766251, -2.9209129370879
739, 54.325622458625, 63.63942180417, 4.9184803264631
740, 57.428991553956, 68.576878849214, -0.64048487122898
741, 54.101548960969, 68.882573859259, 0.22442228007129
742, 53.017084603566, 69.050361817835, -0.19023438906365
743, 53.528488952032, 68.761092752559, 1.1951161875681
744, 52.31027654821, 68.134336728624, 3.8667329192785
745, 52.820907370332, 69.354285493262, -1.264800668069
746, 51.963553163814, 69.186606502529, -0.60372636826221
747, 51.792038605968, 69.445713563503, -1.5891444136432
748, 50.733740534023, 69.196525533861, -0.78883044705063
749, 50.825261069333, 69.478148909224, -1.812374836427
750, 49.616687660555, 69.249597556001, -1.4471946041901
751, 50.003048434751, 69.546300438823, -2.2884521715442
752, 48.708864254956, 69.252771237861, -2.0087023306888
753, 51.081788277115, 69.032704236933, 0.19530217522912
754, 50.754987165832, 69.874010565104, -2.771181838037
755, 49.679584427082, 69.876110872446, -3.1493234445695
756, 50.677791403068, 70.290335502846, -3.7444770150279
757, 49.110480130801, 70.175895594038, -4.6114548016461
758, 52.322009029217, 64.220060454239, 4.1214853087851
759, 56.656883418834, 62.835680174419, 5.8064742438024
760, 57.289770253934, 63.138286280306, 5.1893648910302
761, 57.759196955557, 67.646184078683, 2.1504465111947
762, 56.405771087136, 63.311511736127, 4.9524118225238
763, 57.049505611479, 63.521368866271, 4.3459141718203
764, 56.142649061327, 63.713409337898, 4.1035714812699
765, 56.714433624943, 63.872944487088, 3.6242587672325
766, 55.930476767252, 64.114984898778, 3.2765574333573
767, 57.789576827052, 63.809865084418, 3.6827261686178
768, 56.685467924458, 64.319588825838, 2.6401903928896
769, 55.601597524235, 64.544462370298, 2.3651781591243
770, 56.441278534418, 64.650694623448, 1.8472813529326
771, 55.764083622657, 64.813351903588, 1.548485411296
772, 54.776261824404, 64.83259917488, 1.8344927248987
773, 55.133287671345, 64.985251742444, 1.2113094800103
774, 54.395411736425, 65.070400599269, 1.2429070567309
775, 54.891692885527, 65.180677723275, 0.61364570382963
776, 54.081965870115, 65.255907618862, 0.73376005751619
777, 54.525211281218, 65.37466776746, 0.080610264682587
778, 53.854150655342, 65.438212521164, 0.18065156653999
779, 54.150810690236, 65.536378809977, -0.37949785085511
780, 53.307903317274, 65.610843854586, -0.27812380076852
781, 53.677434735057, 65.725211654612, -0.89392138732675
782, 53.028785038016, 65.787659095483, -0.88201016288245
783, 56.608752016729, 64.828194648059, 1.0849737692579
784, 54.647123734466, 65.674896204272, -1.1339282066924
785, 53.997153559017, 65.857117927114, -1.5114722233837
786, 52.484915419044, 65.564481640983, 0.27427220448471
787, 51.788822111269, 65.786736436186, -0.49090714944754
788, 46.097765143601, 65.106131616603, 2.0940111128146
789, 54.770188489725, 65.877375696983, -1.9333669863274
790, 54.033136541615, 66.02051962788, -2.1397547772408
791, 55.626901039869, 65.679990894158, -1.5997530490928
792, 54.859177257373, 66.06515646026, -2.7076203579234
793, 54.06148801151, 66.200126840947, -2.8278511357251
794, 54.472982004942, 66.304929247536, -3.4384302337819
795, 53.749152459052, 66.394326118674, -3.4468124408163
796, 54.306986494529, 66.512673234864, -4.1742867384434
797, 55.266885582736, 66.299878927332, -3.8408720420603
798, 53.492270425208, 66.597826697673, -4.148405174435
799, 52.827609195545, 66.470004244617, -3.3312360618968
800, 52.741465151809, 66.674160734167, -4.1294837155831
801, 51.803532244603, 66.622884825706, -3.5505666517861
802, 51.989135562629, 66.772083884786, -4.2885267362038
803, 52.568234986044, 66.93094616977, -4.9153447741295
804, 54.890753630004, 66.640477846785, -4.8200173513615
805, 51.848767788678, 66.987503720725, -4.9464018382004
806, 52.282068461337, 67.151729695417, -5.6285757198117
807, 51.516052432539, 67.169530025799, -5.5882999615256
808, 51.819555205321, 67.318142877846, -6.1613737241387
809, 52.640644291968, 67.366151275985, -6.3849858897163
810, 51.912502554829, 67.502309676843, -7.0314091436233
811, 50.917549035733, 67.30551562893, -6.1743410972821
812, 52.871800637731, 67.511748089026, -7.1890575873797
813, 52.342161687002, 67.632567487992, -7.7410502136796
814, 53.080203827866, 67.678751525694, -7.9608269453653
815, 52.29843113318, 67.836111577484, -8.4529643260959
816, 53.240999397092, 68.020182868598, -8.8253223678273
817, 52.348247435008, 68.392809267377, -9.2139940959063
818, 54.158907282915, 67.704132542588, -8.1544807863888
819, 55.911342380474, 66.462115841541, -4.6827380986602
820, 51.337299923771, 67.957546194103, -8.8392485634568
821, 51.484923468102, 68.843824229055, -9.436515452093
822, 52.397239233399, 69.321409633236, -9.3383834384585
823, 51.493545518809, 69.743118318369, -9.3476847350198
824, 52.42681505921, 70.183324783873, -8.9744169416732
825, 51.492980640116, 70.512852178604, -8.7989687756567
826, 50.476397785562, 70.09114674226, -9.312917607001
827, 52.465361104059, 70.75886807206, -8.1532638149928
828, 56.370584913926, 66.160664855208, -3.8609890874647
829, 50.584826912298, 70.739693321474, -8.4592565425552
830, 49.689215982016, 70.565336137818, -8.9460439944597
831, 49.588534924524, 70.75963511246, -7.9421717563266
832, 48.485537622684, 70.638929902795, -7.8904240783949
833, 50.816579556641, 67.081455452315, -5.2155392440218
834, 50.039438444366, 67.175158724929, -5.7269182823392
835, 49.334943638882, 66.838365925999, -4.5314565219904
836, 50.039891266877, 67.343423448098, -6.5685156234224
837, 49.09776149979, 67.159679066409, -6.0105846090687
838, 55.500773874825, 66.836632793015, -5.5636000069037
839, 56.529247757066, 66.633392258708, -5.339703119339
840, 56.075571166499, 67.01992893112, -6.1872973995843
841, 56.777885695335, 66.885922743654, -6.0110323954087
842, 57.611292017574, 66.588812024062, -5.4918963530442
843, 56.54970563767, 67.201382606849, -6.8582343384299
844, 53.379614688081, 70.543739885516, -8.4897445179406
845, 53.202016324457, 70.836150199075, -7.3359204081033
846, 54.171194921216, 70.776658168811, -7.8628624096987
847, 52.289436362674, 70.823782500515, -7.3343607956158
848, 54.1540187012, 70.681323775513, -6.8354962432554
849, 55.010536457717, 70.722446642055, -7.3070023861571
850, 54.957375277127, 70.506902550575, -6.3302995045797
851, 49.249311749488, 67.356698375282, -6.9983186708286
852, 48.544134784535, 67.195818181744, -6.4976990921525
853, 57.352064841697, 64.62059218886, 1.6965207687476
854, 57.493771435244, 64.847607327246, 0.66153051840122
855, 55.772629241675, 70.494929404825, -6.7651696735014
856, 55.879846516709, 70.594135301119, -7.721521240701
857, 56.513001647241, 70.498604046629, -7.18061928511
858, 56.421358266314, 70.244604531937, -6.1375253644916
859, 57.091873852553, 70.242856331685, -6.637839223787
860, 57.273359196197, 69.94787919692, -5.6761377969171
861, 57.865881809405, 70.017143459146, -6.4361299045958
862, 58.565973762472, 69.42689212242, -5.0219498110428
863, 57.913790259469, 70.187094027698, -7.1672783465611
864, 58.539675023657, 69.918697182622, -6.6544350333329
865, 54.24938373669, 70.194166759122, -8.7054337780504
866, 53.806295184104, 64.924810008714, 1.8991350362332
867, 48.491857749638, 67.329763151743, -7.2436170288314
868, 47.975795867185, 67.195827428993, -6.7882092313091
869, 48.068448684157, 67.039309425724, -5.9543772381485
870, 47.252861587999, 67.041804420397, -6.2586206679132
871, 46.96278011813, 66.724516322593, -4.6909467558005
872, 47.336825547845, 67.206713108407, -7.0825594165723
873, 46.616600413617, 67.186848201092, -6.7827678341981
874, 47.848735343871, 67.388293310111, -7.794244979942
875, 49.575268931604, 70.005922210349, -9.4999410676733
876, 46.320273415278, 67.541861088576, -7.7767615373949
877, 45.965321899367, 67.565310022152, -6.8693192497363
878, 45.707187681507, 68.007228561967, -7.5197552279206
879, 45.676293049566, 68.202587245287, -6.3788877620201
880, 45.767597246796, 68.809201304525, -7.2307580219938
881, 46.140638994973, 69.001950592627, -6.3905164593255
882, 45.581095338399, 68.554967111229, -7.9533156671084
883, 46.373303942652, 69.451551365746, -7.0632879119176
884, 46.916704052532, 69.545696386386, -6.1321990012469
885, 46.471844526252, 69.096310425689, -5.2596623618227
886, 48.799308170614, 67.495130802137, -7.9308949380848
887, 48.171644330786, 67.633032550931, -8.669575776349
888, 58.222761323457, 64.726236480519, 1.2217216899699
889, 58.343428127871, 64.95262026852, 0.32414025958904
890, 57.641364254066, 65.096766308046, -0.19876489761668
891, 58.505031532362, 65.16523288742, -0.52405601703495
892, 57.828699298796, 65.296882095079, -1.0538937398811
893, 58.724849301482, 65.377003343871, -1.251664414746
894, 58.029314444555, 65.489832301491, -1.8359388093602
895, 58.993344355343, 65.553196251877, -2.0392160099022
896, 59.643245434119, 65.565681310819, -1.4212228419664
897, 59.813202308481, 65.720437580092, -2.1090551629694
898, 59.226725198865, 64.971382648808, 0.84181584761567
899, 59.302814758489, 65.787390319891, -2.9343521456347
900, 60.293963998802, 66.089378018904, -2.7006098481303
901, 60.10218618508, 66.12751164932, -3.5781817727219
902, 60.743731575853, 66.729825234633, -3.0793699239732
903, 60.661653041689, 66.575004311639, -3.9246572624455
904, 60.593005460567, 66.812518328614, -2.1163935652281
905, 60.435850279256, 67.454304754193, -2.6333111243889
906, 60.060852985089, 67.586999735321, -1.7290211442141
907, 59.857909753822, 67.984449652863, -2.3983164152195
908, 60.030549193372, 68.12268039553, -3.2032966959814
909, 59.297722011367, 68.468985404816, -2.7483342402842
910, 58.991673695843, 64.664947724282, 1.8897772464292
911, 59.736443924346, 64.994038696009, 1.6368647824121
912, 59.633409922961, 64.668653878843, 2.5714003754858
913, 60.099350469003, 65.405035183121, 2.3846932182557
914, 60.246497494287, 65.931032832099, 1.5444829588057
915, 60.452828964193, 66.876727757522, -1.1468001285826
916, 59.98095536997, 66.277996642245, -4.4297074936428
917, 60.685395881572, 66.720185457343, -4.7372940101849
918, 59.848274112401, 66.614273341909, -5.3513639440351
919, 60.599905539181, 66.956412601666, -5.5604860388264
920, 58.616748542229, 70.024573504889, -7.5636240425299
921, 57.730387188158, 70.09747588454, -8.1054545317755
922, 58.638956635582, 69.651108727982, -8.3621951717088
923, 59.782796636445, 67.014572314769, -6.2855251988139
924, 60.554637008563, 67.251396898525, -6.3868190348827
925, 61.121559217504, 67.450224212094, -5.9512733327839
926, 61.232059377258, 67.724268172496, -6.6024639743078
927, 60.018088986982, 67.401132132561, -7.2120063448915
928, 59.211782972265, 69.759607318823, -7.8834684485972
929, 61.120030620469, 68.222224307753, -5.9081591670038
930, 60.866574458982, 67.339007718014, -4.1637141528231
931, 57.803038410811, 69.349089396443, -8.7115100833461
932, 55.220207115938, 67.155833004324, -6.342476582342
933, 49.167568408376, 67.775866156185, -8.7879882483015
934, 58.589730827765, 68.885132568104, -8.7753389336677
935, 52.175758392735, 66.379265371318, -2.8102296292651
936, 51.231175252185, 66.422853173804, -2.8052259562973
937, 61.319490835861, 68.45250086639, -6.9132321600759
938, 59.024715160843, 67.124764605055, -6.7597182877675
939, 56.310722967583, 70.053863440694, -5.035533307148
940, 60.010803984017, 65.077725848845, 3.2925833262929
941, 59.789584659992, 65.917052943148, 3.1257049652451
942, 47.394776182734, 69.619958917899, -5.153530407872
943, 47.875683592585, 69.961014935073, -5.9049910508844
944, 47.116734386644, 69.323120167667, -4.2835812719953
945, 48.611489136468, 68.097983339205, -9.4070778683503
946, 47.560149422015, 67.926998016053, -9.3322859837155
947, 48.106291632682, 68.819303058208, -9.83686526361
948, 47.013929739336, 68.596571865599, -9.755999119088
949, 47.150742439398, 69.4868100016, -9.8463858869201
950, 57.713080869876, 68.474712859583, -8.9258443511569
951, 56.920435213716, 68.942050449117, -8.9383495359557
952, 54.129762446906, 70.533167359693, -5.946267009626
953, 51.575020313775, 70.165050680936, -3.2039608906703
954, 51.516165716364, 70.458508884677, -4.0916512458846
955, 60.711264061822, 68.917546837866, -6.4041346642399
956, 60.393374285047, 68.596860446263, -5.2257157163701
957, 59.427892109546, 68.715491587186, -3.7140093016283
958, 58.519467273523, 69.00261465241, -3.2263410860104
959, 56.658120033121, 68.923059911231, -1.3044705702229
960, 59.235867300117, 68.187186466865, -1.7310361334451
961, 57.55156054308, 68.889524452906, -1.9217027293906
962, 59.113002843921, 67.444466603648, -7.7079889537693
963, 55.020576907397, 63.179096004408, 5.7798679344757
964, 59.852252542712, 67.741559966154, -8.1758597355266
965, 60.834392845408, 69.111936138398, -7.3236585464614
966, 48.890203477177, 70.294456625464, -9.4138507491543
967, 52.607909886716, 69.656246939138, -2.0863279267466
968, 55.275288414609, 65.306804288406, -0.048537552980329
969, 50.869355515604, 64.309166307791, 4.3722586211885
970, 49.761284747464, 64.609859198362, 3.6996172547633
971, 47.199030936794, 69.944701101792, -6.9830348128985
972, 46.59915822438, 69.864707141017, -7.6001206418444
973, 46.25058427589, 69.029408701563, -9.6411969486142
974, 57.097856614539, 69.787264441313, -4.5623418641824
975, 54.490246567781, 64.575690929736, 2.6167699655238
976, 46.997623569638, 68.046716593617, 2.5207267542713
977, 50.704502285023, 70.793776303598, -7.4284884937401
978, 49.935200395177, 70.636697870279, -6.7552015430185
979, 50.963053852513, 70.690073340607, -6.5005280523962
980, 50.381324362085, 70.592033695218, -5.844706603236
981, 56.784945767529, 68.101673854566, -8.7724951327401
982, 56.007694746584, 68.500344239858, -8.9335602958451
983, 56.03407434182, 67.812214149024, -8.4231829341758
984, 54.23130686935, 68.392673358977, -9.0234295106366
985, 50.539593795863, 68.505179689078, -9.4553797416739
986, 49.903745887163, 69.062190322514, -0.25846918265437
987, 49.983326711461, 68.886813051367, 0.84825457894182
988, 49.050959696085, 68.891124901003, 0.3474789365241
989, 50.901460457585, 68.773408177243, 1.5060548354806
990, 55.372514285715, 68.300818507094, 1.9285440337387
991, 49.602685554567, 70.469262467502, -5.8746417500931
992, 57.469391131026, 67.741631268316, -8.3740149713783
993, 51.732316805564, 68.90859022424, 0.95269937609745
994, 51.914376381513, 68.668959562885, 1.8597782701064
995, 50.872349480362, 68.532706418524, 2.3935152761327
996, 49.22015441729, 68.723307751028, 1.3232805054892
997, 48.121012381984, 68.611242836925, 1.1950964270774
998, 48.059620617799, 68.783067236867, 0.17315106910402
999, 57.43426137719, 66.948670233975, 4.4162289421597
1000, 46.245015267084, 68.780569403638, -4.0793997315108
1001, 46.67419404967, 68.916200550416, -3.276977838387
1002, 47.537706938768, 69.277758450601, -3.2507146954468
1003, 47.0683383489, 68.936343649845, -2.5079200395892
1004, 45.925314458861, 68.306137238384, -2.1804528573481
1005, 47.983428857044, 69.624978031346, -3.9255871322688
1006, 50.949839670624, 67.496605213306, -7.1144106238325
1007, 45.793174762215, 68.453754881029, -4.8013284663505
1008, 45.590014293905, 68.157658693477, -3.8388147990361
1009, 59.148696879237, 66.289129254043, -4.8598806326842
1010, 59.530556181267, 64.293192699968, 3.5141094002614
1011, 59.902403481104, 64.853754838469, 4.1780588612981
1012, 50.783896639852, 66.658093479809, -3.5541366458809
1013, 50.353026940855, 66.416483884231, -2.7801575236198
1014, 50.771322481369, 66.200253543768, -1.9203179768368
1015, 49.331239278063, 66.102742454141, -1.7326161395902
1016, 59.965641810344, 69.124948727312, -5.8884369022507
1017, 46.44049272109, 68.154251875672, -9.2837674805581
1018, 53.544993935832, 64.583756028532, 2.8916023057382
1019, 52.636434498735, 64.867016260057, 2.4026236668492
1020, 59.555935800966, 63.957566336964, 4.6213339817143
1021, 59.423569629798, 65.148897252065, 5.5794377553324
1022, 59.720895924172, 64.194983764692, 5.5898387782908
1023, 56.921417831367, 65.267317991734, -0.69191858114485
1024, 45.829561401055, 67.328188132302, -6.0059046537862
1025, 51.339877982639, 70.653388176906, -5.6797883666392
1026, 47.225775558862, 68.523679172098, 0.82474899849821
1027, 47.060664268495, 68.602193830597, -0.10089184261242
1028, 47.778067632814, 68.831074136058, -0.71852863537977
1029, 56.086151595903, 69.358022958905, -8.8977240488774
1030, 54.844357887264, 70.361728557565, -5.3271909600699
1031, 46.270967791747, 68.306200979317, 0.48325913373258
1032, 45.454026712592, 67.813460640173, 1.1828767636491
1033, 45.430396048995, 67.898228302593, 0.13241547494878
1034, 44.798987406439, 67.190255619674, 0.73451445924441
1035, 44.908130481899, 67.215172217243, -0.36656747388716
1036, 44.887490911856, 66.340506986976, 0.21057213856557
1037, 45.082258158488, 66.405882378445, -0.81546398471668
1038, 45.620764428778, 65.82241917675, -0.10471927156585
1039, 45.887363469143, 65.937029461653, -1.1356914318078
1040, 46.498686724026, 65.729373418693, -0.44086261641021
1041, 46.879367287937, 65.854624259671, -1.2577913010695
1042, 47.415960954652, 65.725417248922, -0.48023899998355
1043, 46.205963593252, 66.056775252887, -2.0850738476047
1044, 47.151625826174, 66.023225931375, -2.0411697740757
1045, 46.563133015614, 66.323547211203, -3.0591433278462
1046, 47.556978294873, 66.287013212494, -2.8701589175422
1047, 45.578615394434, 66.47785358855, -2.6405181920237
1048, 47.009079377036, 65.529144707086, 0.2961123157333
1049, 47.931603063172, 65.543308755332, 0.36626712976532
1050, 48.365920936309, 65.738853865871, -0.32882642847732
1051, 48.874141615056, 65.537200290625, 0.55574508341354
1052, 49.363071021166, 65.788580287606, -0.36366457202982
1053, 49.79785822181, 65.568386061839, 0.54579512156617
1054, 49.231137692248, 65.314088994092, 1.4238113808626
1055, 50.227699201468, 65.334781531246, 1.396442407211
1056, 45.223414110946, 65.661016371597, 0.96364744126329
1057, 45.270811625261, 65.287838683385, 1.9963567164096
1058, 45.000985470805, 67.172575632889, -1.2810921321701
1059, 45.792654992678, 66.697373823883, -3.499311637522
1060, 47.4126372009, 65.356003989132, 1.0540549571273
1061, 60.051949949887, 69.397539933255, -6.7144463921991
1062, 46.499653565129, 69.835796954127, -9.5875066687013
1063, 47.339595261047, 70.278047854634, -9.429607705751
1064, 45.800447015636, 69.601355164431, -9.0732583585484
1065, 53.636480425551, 67.347229205658, -6.5374603708546
1066, 47.907741038695, 65.929544640186, -1.4117692666333
1067, 58.475118593019, 68.087599345503, -8.6841489924798
1068, 50.751569786039, 65.543040061323, 0.65734425351303
1069, 51.185746735649, 65.310219430478, 1.4405074812525
1070, 50.678214570783, 65.079391570473, 2.2423556234943
1071, 54.904018274922, 68.116602394198, 2.9773377944019
1072, 54.178550141247, 64.210013166507, 3.5770561014631
1073, 54.368985929221, 68.378374754504, 2.2515319160824
1074, 45.180257851376, 67.11012070961, -2.9333871397968
1075, 49.142652104021, 70.455128346171, -6.4572491836992
1076, 53.3017544651, 70.650819655278, -6.3171673532086
1077, 53.379991089602, 70.552725142855, -5.4720380900814
1078, 59.686529643709, 67.713032650812, -0.91429832690831
1079, 60.054604452675, 67.233539721293, -0.16302419222017
1080, 60.477565131917, 66.371226494138, -0.072238529930215
1081, 58.971992342038, 68.093511997236, -0.87773486899198
1082, 58.113829633493, 67.229638431654, -7.1579229284157
1083, 51.583029580376, 68.351381076513, 3.143810794177
1084, 52.587116673935, 68.436297476802, 2.7216958794078
1085, 52.955476781925, 68.645213079783, 1.7955538401138
1086, 52.957372544117, 65.149918148327, 1.5346537291575
1087, 55.971881628443, 62.742481953847, 6.4483566841353
1088, 60.216223785328, 66.736512118119, 0.88825777685522
1089, 57.717810428083, 64.227687305146, 2.7146485553782
1090, 56.679101351665, 70.346026483824, -8.0449258778458
1091, 49.675898900778, 67.604568500212, -8.054099929618
1092, 46.996374530193, 67.550223182137, -8.465370213026
1093, 45.954555661218, 69.339856774534, -7.6804414443941
1094, 48.239840977465, 69.918656309267, -4.807443208375
1095, 55.193668105087, 68.902901422026, -9.0767723810086
1096, 51.59721858209, 64.974599617832, 2.4068831996541
1097, 49.078162923169, 68.742241174186, -9.7100412458479
1098, 44.826604929288, 67.080724740185, 2.0371162225619
1099, 59.503004499784, 68.99458325606, -4.8625992235283
1100, 47.561680074048, 70.357533970642, -7.6819024911809
1101, 45.722574060303, 67.697598901875, 2.2171957120823
1102, 45.396933728155, 67.702254531667, -4.4315588195121
1103, 52.505863914103, 70.399294558933, -3.6296434627962
1104, 48.515065995953, 69.502841815367, -2.9435245209787
1105, 48.546573754567, 64.777171932794, 3.3221025431868
1106, 48.831307734434, 65.077254639048, 2.3667048456473
1107, 53.174282968371, 63.900319661639, 4.7152517213048
1108, 61.32025044554, 68.453243242305, -7.6771814835531
1109, 60.478159113296, 69.085912257591, -8.1473541026561
1110, 51.053955341102, 64.725129807392, 3.2017191754766
1111, 59.2049023446, 65.994541432629, -3.9625723987657
1112, 58.390015891304, 66.04353563727, -4.2123130888597
1113, 58.316900719426, 65.862945548717, -3.3922788484861
1114, 56.347673726663, 69.907706325138, -4.0287731534484
1115, 57.122464119156, 69.607423358755, -3.6479352466436
1116, 57.236992910367, 69.298801963101, -2.7775099213246
1117, 53.257494544844, 65.97563813747, -1.6441616100051
1118, 53.34488162598, 69.787138843724, -9.0700761737638
1119, 46.120666520425, 68.307840373993, -0.43208298127831
1120, 60.231734950313, 68.245155531972, -4.0701757008353
1121, 48.661001757709, 66.931207212476, -5.1816342841465
1122, 54.5572565669, 68.61404843907, 1.3093250737101
1123, 50.195711444026, 67.867992596336, -8.8136825947895
1124, 52.658160364928, 70.533407374292, -4.6259391711864
1125, 46.775627120064, 68.58799550708, -0.92970539771542
1126, 48.916177537633, 69.005366110542, -0.57190943814512
1127, 47.170115322094, 66.510751553937, -3.6800789680455
1128, 48.054525169631, 66.537310249472, -3.5797414355309
1129, 48.420803360539, 66.330519126735, -2.8089745744029
1130, 50.063112130277, 68.67435932763, 1.7502735559973
1131, 49.992419445548, 68.406290239073, 2.7440503994941
1132, 56.923909907206, 66.318952628308, -4.648819946874
1133, 52.4413986026, 65.934085510617, -1.2151027561234
1134, 57.94154713027, 69.441091217792, -4.0893757763782
1135, 51.967413531318, 64.62863228398, 3.2227440789703
1136, 53.296928373045, 70.101596644708, -2.9711849687638
1137, 58.480075968035, 68.632541243644, -2.0832571492674
1138, 53.314012197342, 68.159701625296, 3.6039906903674
1139, 59.598511597463, 65.676924878729, 3.9476142074829
1140, 59.060871909377, 66.414345836882, 3.5620381060223
1141, 59.229754619671, 66.761210014188, 2.5736564913521
1142, 58.378181857722, 66.998250678687, 3.1632238115812
1143, 58.745545819198, 63.401691076589, 5.021171707319
1144, 48.259536856321, 70.2907882437, -6.7919504389171
1145, 55.682650793196, 67.320057549448, -7.0363771540355
1146, 54.600865761033, 67.399305883949, -7.0719822396241
1147, 46.719493653999, 70.322084022607, -8.9118997985518
1148, 47.673276711253, 70.627749511628, -8.6293627484184
1149, 57.486915380957, 67.201118011555, 3.6092340616187
1150, 58.675092847773, 64.24521306909, 2.8401265756352
1151, 46.613243199256, 66.878520484116, -5.5592447664647
1152, 47.838230455036, 66.800644754696, -4.9100821949674
1153, 50.267560563682, 65.758895470765, -0.15254912420861
1154, 52.394514550343, 70.645599089754, -5.7713278765795
1155, 58.023999510239, 66.3826010842, 5.4405786900046
1156, 58.161956581462, 66.520177034198, 4.736760609451
1157, 58.891020176355, 66.661624449198, -5.698936373883
1158, 59.579831791809, 67.408942077291, 0.72933730796007
1159, 59.769622451042, 66.808273599928, 1.6625082210798
1160, 59.023863701084, 67.382649447868, 1.5965280916199
1161, 50.742982310352, 70.539904177092, -4.8682255256677
1162, 48.245570126078, 65.25712723383, 1.5674369513955
1163, 49.726025908933, 65.114324454541, 2.2254165195892
1164, 51.661261397797, 69.792164219977, -2.4315215158612
1165, 59.292693510884, 68.305975832191, -8.8529061281035
1166, 45.277754812555, 66.36646522182, -1.7545046616435
1167, 55.358280667657, 63.906947755675, 3.9022272305836
1168, 56.750160070893, 65.031608674588, 0.29439594270338
1169, 59.238470119019, 67.811157588063, -0.10935065066411
1170, 55.144960732928, 68.02088054114, -8.7334551701725
1171, 55.348659494535, 63.51784148466, 4.8096907053734
1172, 44.586522233497, 66.422519817533, 1.4249537521518
1173, 55.81876396257, 66.01240146322, -2.9873827269196
1174, 56.791229015366, 65.893979865688, -3.0127587560492
1175, 60.709817099461, 67.735234308447, -7.7072837503865
1176, 55.13778566289, 67.750421758162, 4.0706082068959
1177, 49.940100074423, 66.002580936889, -1.230933199265
1178, 50.828007019472, 65.914547237839, -0.85986039679207
1179, 58.245574575016, 66.968971043954, -6.4037924238172
1180, 61.029072180454, 67.758488471236, -5.0799960494251
1181, 57.0994562929, 65.484926692373, -1.5279094896375
1182, 48.083718388693, 69.888316461065, -9.7371470279422
1183, 53.295381783846, 64.207037813936, 3.856426772668
1184, 57.787765274555, 68.233112755658, 0.31479531475447
1185, 55.513426842759, 70.144654999166, -4.416768207076
1186, 54.396754724203, 70.336038642652, -4.3519470528824
1187, 51.568329012272, 67.671304213747, -7.9062020824511
1188, 53.253917732652, 67.07426985405, -5.5811575100546
1189, 58.332864582523, 62.710489241265, 6.5086829667366
1190, 49.685639750627, 68.229044205767, -9.3652402732984
1191, 57.433244038171, 66.017040204955, -3.8480949921123
1192, 58.835132359886, 69.134773561665, -4.2471659706218
1193, 53.494537299771, 68.389857875142, 2.6268875121599
1194, 49.852639792033, 69.203869667264, -9.6741552075497
1195, 51.566193069197, 70.824283015625, -7.8443364474889
1196, 48.879300200753, 65.925265820029, -1.1001431236944
1197, 48.877066014701, 69.890731992943, -3.7932766835522
1198, 54.403580730828, 67.069913451384, -5.8745579907226
1199, 53.939485930531, 66.795037593512, -4.9293331340745
1200, 58.738752460232, 63.828971651058, 3.8969625275772
1201, 55.945359772126, 69.250806348219, -1.8602349132412
1202, 60.263424257878, 65.83259110953, -0.95222582497646
1203, 60.000083751733, 65.441734036234, 0.13231884094927
1204, 48.813195326759, 70.243851275454, -5.5793075073604
1205, 53.682428493422, 67.523110729639, -7.3804203783329
1206, 55.28948836241, 67.572461884737, -7.8399123187926
1207, 57.947881413751, 63.435071901749, 4.5483626953321
1208, 48.926416782791, 66.597491452194, -3.5730705677859
1209, 51.606871293127, 66.04579149367, -1.4193695496636
1210, 55.0572735142, 68.719009498586, 0.43177019324128
1211, 52.680825211398, 68.890871867444, 0.82064399806146
1212, 55.177793631777, 69.781352992082, -8.8417648754885
1213, 53.317454673847, 68.862579658387, -9.2583506033346
1214, 51.674148797326, 65.519146625496, 0.63682874526426
1215, 56.224409918668, 67.440884352068, -7.6222635618672
1216, 55.100509604476, 70.47537332862, -8.2279184128933
1217, 55.448361229996, 65.47963784103, -0.80080504571337
1218, 46.022376011016, 67.887687030592, -8.4125872091648
1219, 45.766688989255, 68.432772560419, -8.8298826561795
1220, 49.833037171916, 66.644685927277, -3.5175899630854
1221, 50.274967825066, 66.818163263499, -4.2572748137175
1222, 59.485242464753, 65.479286577651, 4.7141660438917
1223, 47.89610643592, 69.121754242773, -2.1955715665262
1224, 59.972429714665, 69.577343632636, -7.5646501507066
1225, 54.276280886296, 69.348252881983, -9.1079438175288
1226, 57.892507155124, 69.026350318358, -2.6023350445909
1227, 57.417964572144, 66.694314178895, 5.3182026827879
1228, 58.358491887111, 66.32820764604, -5.0247993592802
1229, 51.233921625858, 66.81265247963, -4.3212431684116
1230, 46.011341049753, 68.277304559112, -1.3143098946675
1231, 45.400661588909, 67.840133149008, -0.77071855072197
1232, 49.374046303939, 66.326987678366, -2.5795439544558
1233, 50.796161002108, 69.28413780984, -9.5632850474312
1234, 45.091475267624, 67.10050417945, -2.0995917627476
1235, 47.138410535376, 65.052775943756, 2.2928689007541
1236, 48.651408029591, 66.1276144641, -2.0248353855354
1237, 56.934781408389, 69.747302885225, -8.6233861440185
1238, 46.087398767473, 65.499007184662, 0.60836442163787
1239, 59.456231246486, 69.184974264574, -8.4470314136964
1240, 51.995876785494, 65.198728562779, 1.6436784673019
1241, 53.219930088533, 66.236163318812, -2.6300357615444
1242, 47.371606063648, 68.330039802479, 1.7853639485296
1243, 49.941102769372, 66.989933049376, -5.0117870909604
1244, 48.414935494915, 66.739389176069, -4.3472015253188
1245, 58.287417924256, 67.544264958521, -8.0336799650864
1246, 45.90714896001, 68.391834993398, -3.0104767579293
1247, 46.212228513471, 69.893361597503, -8.2600337922748
1248, 56.085806435411, 65.248439860868, -0.24661924129494
1249, 51.766740918056, 70.700607595842, -6.3239702235211
1250, 58.186438868127, 64.509666318751, 2.0442295344856
1251, 59.400481212283, 63.318795161546, 6.5227812388819
1252, 49.775838476211, 70.415232498062, -5.0825094616221
1253, 53.272262760844, 65.387125154277, 0.61311752311193
1254, 53.56207329108, 69.641575324988, -2.0877132968869
1255, 45.5080358671, 67.980850962454, -5.28419551145
1256, 45.811604073036, 66.946303310012, -4.5879878647122
1257, 47.908410627396, 66.109340363935, -2.1882682623931
1258, 47.641346239852, 68.130564666699, 2.7084219438229
1259, 59.950212989247, 66.225767677071, 2.2718243883623
1260, 56.019429232307, 70.1210768687, -8.4720680194563
1261, 52.751954563586, 64.519602434822, 3.2677449545718
1262, 45.381033956219, 67.799708431849, -1.5758018254376
1263, 55.794747665228, 65.009616494233, 0.77702014544869
1264, 48.873422317111, 69.506230084371, -9.7569473321161
1265, 57.334180186667, 65.6462354228, -2.3149879397616
1266, 50.217930851593, 68.185354383881, 3.6184851206217
1267, 60.378233099598, 66.055340888779, -1.7972173477927
1268, 58.9445145554, 66.152750959603, 4.3701469828862
1269, 57.227380017786, 67.37853293143, -7.5794718219259
1270, 58.316258088397, 68.438825524814, -1.2500795477176
1271, 55.00821887218, 64.233128178853, 3.2718374109245
1272, 59.406081074566, 65.361139575013, -0.73485256749061
1273, 51.583888521493, 64.397519274951, 3.8969390395416
1274, 58.232959506748, 67.718387226136, 1.5911128887873
1275, 52.301944281955, 63.971481788009, 4.9423011823609
1276, 49.291268282855, 69.491344740404, -2.4288741274609
1277, 53.700182298655, 68.539902188721, 1.919234992634
1278, 52.111852778794, 69.003584347361, 0.25424715578405
1279, 54.126682682469, 70.180916852633, -3.3669672797376
1280, 60.577726495204, 67.540752621004, -3.3572851637627
1281, 60.738727003822, 68.258483419083, -8.3379533468163
1282, 49.399602652771, 68.528316062435, 2.1125709744895
1283, 55.694497440773, 70.268548078494, -5.6262291895223
1284, 51.639292296001, 70.780823781533, -7.0240471340458
1285, 60.041496820376, 68.559793138223, -8.624713128505
1286, 55.897440553673, 63.070584416011, 5.5819598708892
1287, 56.306144461392, 65.694171709216, -1.9934802274305
1288, 45.355478739348, 67.751408137988, -2.3674510661464
1289, 50.167126553185, 64.852519307411, 2.9840386354485
1290, 58.232426677513, 69.740900856989, -5.8045187138613
1291, 59.101202533935, 69.507672331875, -5.9375555153783
1292, 46.557418837041, 65.28234372685, 1.3587432559241
1293, 45.331697467698, 67.327117889501, -3.7775257515057
1294, 61.258656267702, 67.92016266425, -7.2079796717708
1295, 52.348303230401, 70.049961651234, -2.8721950957655
1296, 58.431872767387, 67.32045226325, 2.3594453423951
1297, 59.290760044627, 69.78333992582, -7.0118017640029
1298, 57.752146335982, 69.294970142381, -3.2666092328101
1299, 48.790865866722, 70.693752462073, -8.72614808425
1300, 57.379825508639, 67.061484017476, -6.5833842970553
1301, 52.500652675275, 70.719223571854, -6.5632320332665
1302, 59.045167384498, 67.756195912233, -8.3544960126965
1303, 54.06482138743, 68.215845292066, 3.1088956358285
1304, 50.66361605421, 67.653595643675, -7.9902720731814
1305, 56.237792873846, 65.470660655254, -1.1337775453646
1306, 51.714548564629, 68.05404699749, 4.3122193305828
1307, 50.749347995222, 68.331606495112, 3.1465200500071
1308, 49.063498139013, 70.577018614482, -7.216851288383
1309, 45.640401523523, 69.125656562486, -8.3313781347998
1310, 48.731791249427, 68.489957113669, 1.9886102636119
1311, 53.636891092712, 70.458442942176, -4.6810778908951
1312, 53.934368804535, 63.969514707125, 4.2273549071784
1313, 59.992543589977, 65.373785474211, 0.9822384613773
1314, 45.836399632066, 68.600367590442, -5.6922852054574
1315, 55.658152811694, 68.512826108488, 1.0738244556209
1316, 55.756490427927, 69.925094119945, -3.4633519323043
1317, 45.790052087345, 65.350083532313, 1.3987510625218
1318, 48.195188650513, 70.471890698054, -9.2703185834665
1319, 53.693325816899, 65.156243086982, 1.2458547509966
1320, 46.472371871985, 66.633985605619, -3.9899510812454
1321, 52.383568305802, 66.144790807791, -1.970819378422
1322, 57.617520273335, 67.435179268664, 2.8308345725746
1323, 58.299610222972, 65.641131742829, -2.5434701041629
1324, 57.748384728554, 69.686910337707, -5.0533936798255
1325, 51.026739128448, 65.723944092319, -0.038940507908808
1326, 59.102670361736, 65.138560666582, -0.007210149430063
1327, 58.146424403294, 63.017063975839, 5.5596923705328
1328, 59.765368200414, 64.738744528227, 4.9973987962399
1329, 46.939839777282, 70.316091600124, -8.1611165868503
1330, 47.053461113852, 67.361159440479, -7.6589265825356
1331, 54.64125247632, 63.859898812897, 4.2354469324178
1332, 51.385753677248, 67.423890387607, -6.6212444174967
1333, 55.412336435216, 65.871711311616, -2.2380577413854
1334, 50.416799980534, 64.572502003202, 3.6946741143496
1335, 50.172171287378, 64.38116063522, 4.3212075474294
1336, 46.576971010843, 68.619531044334, -1.8346895628126
1337, 47.372836916067, 68.838408528559, -1.5075137592594
1338, 48.407887835841, 69.033196387582, -1.257857503465
1339, 46.407194177558, 68.648587954657, -2.5128147905982
1340, 60.396023716595, 65.941328306106, 0.68215861991437
1341, 45.382381593978, 67.779924222952, -3.1999618742329
1342, 58.225828482978, 66.769634929202, 3.9354277155467
1343, 47.682349601759, 66.67070834999, -4.2403900738424
1344, 53.374598394608, 68.896725833821, 0.47671417970118
1345, 57.255225226738, 70.404965651098, -7.4748734292558
1346, 57.741784005758, 66.23583270079, -4.6812281996735
1347, 57.613561055619, 65.816573821166, -3.0433523396899
1348, 56.739671130299, 69.210878505711, -2.1809137508057
1349, 49.968313327752, 66.223839963488, -2.0881107802696
1350, 54.822424388735, 65.482419136671, -0.49860070435007
1351, 54.209897071376, 63.420270042178, 5.6155762424568
1352, 53.233921764804, 66.800955081718, -4.7250876360394
1353, 52.450173609037, 65.376969337426, 0.95981548624645
1354, 48.333356007682, 68.198322338091, 2.8650559171442
1355, 52.570651256394, 65.735665907889, -0.49953104829151
1356, 49.527378262272, 68.186172508354, 3.4217487231113
1357, 58.41511452197, 68.206065993623, -0.3669284053014
1358, 56.739921864319, 67.661981547723, -8.1976732971098
1359, 47.334059794058, 66.878762605002, -5.5239327037101
1360, 51.608054898503, 66.230444625937, -2.1547316608399
1361, 51.742504020078, 70.589769162862, -4.9588761391125
1362, 49.801433702602, 70.269254620798, -4.1762605371684
1363, 47.68738539187, 69.636529755973, -4.5483883532321
1364, 49.264748711158, 64.856766414196, 3.0614709517413
1365, 49.117224966889, 64.608987438286, 3.7922895572157
1366, 57.91765419053, 68.020247645224, 1.0276562819733
1367, 60.74826385215, 67.554765285193, -7.0341619970973
1368, 49.369293267238, 67.028134891124, -5.3034890710652
1369, 54.090034814242, 70.44814682149, -5.1782439454859
1370, 50.153602062966, 67.489634809527, -7.3323967036216
1371, 57.268148550511, 64.026032128831, 3.2031725192217
1372, 53.699186465242, 63.30616604364, 14.869818307672
1373, 56.190104882546, 62.161193353792, 14.402304841152
1374, 55.032962322231, 63.779809786436, 12.849483039017
1375, 55.135482700944, 62.065013880823, 16.617530317461
1376, 52.169258995038, 63.305416347979, 16.714093234853
1377, 51.296684591537, 63.885346601596, 14.589316840978
1378, 51.538919899296, 64.844245404238, 11.378808546149
1379, 50.841830011877, 65.398327849251, 7.9817418815346
1380, 55.006395126746, 65.000830931074, 6.5921683999861
1381, 56.271326951367, 61.056020998467, 16.587956052149
1382, 56.764630726591, 63.171079711371, 10.80618601595
1383, 54.280173229632, 67.45979263693, 0.19204602900336
1384, 56.702764494337, 62.564040766767, 12.644489285296
1385, 52.333054996909, 69.581604421068, -6.0616410574225
1386, 54.357909322849, 64.272486261862, 10.7436044215
1387, 55.366459222178, 64.147393752708, 9.1753524782681
1388, 53.28809275145, 66.115829455243, 4.221593337582
1389, 52.948308663825, 64.098258521212, 13.366652174723
1390, 49.947696125278, 63.712937368625, 13.67362114864
1391, 52.757748227936, 65.089611718457, 7.7308121709705
1392, 49.998839640106, 63.692660656217, 16.544521122591
1393, 52.336839550125, 68.381730686862, -4.3060327312298
1394, 51.213651230471, 65.760830671995, 6.0436295465175
1395, 48.082059615063, 64.756998772138, 10.318997890867
1396, 50.02670269112, 66.424301292508, 4.4104907853189
1397, 52.099975975709, 65.059369435202, 9.8347374540102
1398, 54.145583128133, 67.928684619641, -2.9274466021896
1399, 55.078035875793, 66.930161145959, 1.9488409595064
1400, 55.242351728441, 65.710723773408, 4.4788386091705
1401, 48.374059713741, 64.149888349477, 15.468694239058
1402, 57.482310369933, 66.412024504835, 0.25687017523266
1403, 55.605075705116, 67.611132172107, -0.40849582348852
1404, 53.088554115012, 65.276997477047, 5.9933255032681
1405, 50.383923162477, 65.104420995734, 9.8795035713869
1406, 56.613871458736, 64.373696064566, 6.1217943113501
1407, 57.023259905865, 67.43665069815, -3.5686153181399
1408, 51.243917975355, 64.663507530831, 13.027063430272
1409, 49.656452148485, 68.912310778863, -4.9695358242332
1410, 48.345594689922, 65.377524203861, 8.4096038680713
1411, 53.326209217127, 66.543644259988, 2.6589634642271
1412, 54.006898623098, 68.236311606346, -5.4964857890705
1413, 57.306529002903, 62.876882793925, 9.6005482805333
1414, 55.419368583062, 68.334815407129, -3.8983165421034
1415, 49.791130778188, 66.825556189839, 2.1101958974145
1416, 53.708072027969, 63.129547935097, 16.965294775584
1417, 47.708161625424, 64.130920663475, 14.10749384187
1418, 52.590959214275, 67.060108534934, 1.0108695838966
1419, 52.810981687593, 66.932982525778, -0.43393306264886
1420, 47.771814654982, 64.446808149674, 12.021048411583
1421, 49.54014922803, 64.743848078463, 11.530294326103
1422, 49.787691695347, 65.860841766207, 6.6111545007935
1423, 53.698503535859, 64.298744040936, 9.0080015431771
1424, 46.051219944161, 63.903334906904, 15.530545756084
1425, 56.975827062767, 64.143062589918, 7.8430965108186
1426, 54.399633493627, 67.156124770185, -1.1667601610194
1427, 56.976477283759, 66.488020068437, 1.8981779012368
1428, 57.31820875716, 65.232453125628, 4.7039132049523
1429, 51.283503678534, 66.931073171471, 3.3844041152505
1430, 53.022274188505, 65.140810408477, 12.111584087908
1431, 48.204220114401, 68.485420419229, -4.5598094051414
1432, 50.877554662609, 68.491047467672, -3.6170504054195
1433, 56.413160116198, 65.954765902041, 3.5349637790842
1434, 53.93525586923, 69.449974427873, -6.5688410474544
1435, 46.57654714487, 65.169950264267, 8.8825041754855
1436, 56.972615537317, 61.218233265302, 15.364997230933
1437, 55.867344052432, 67.469999951511, -2.484849055483
1438, 47.708354695095, 65.571702558584, 6.7764340600735
1439, 52.582609697161, 68.973806697109, -8.1067283784238
1440, 52.251380216325, 67.643071230235, -2.1205077910833
1441, 49.097969670289, 66.273970405895, 3.6422503704385
1442, 57.428945200064, 68.641527463977, -7.8100612274113
1443, 49.658920616096, 68.054447323944, -2.4345740634076
1444, 48.714744307548, 65.679020684095, 5.0935972703505
1445, 49.466578831948, 69.072584879497, -7.0117634979693
1446, 57.223715001847, 68.056005608837, -5.117119749746
1447, 54.454242728634, 62.186900672038, 13.845970097645
1448, 58.019579761152, 66.513166402633, -1.0056806391707
1449, 50.82564715167, 66.954166077387, 0.6382275270323
1450, 46.71957041017, 66.568954695903, 3.2624265957894
1451, 54.57753945283, 64.135807175994, 7.7173481211787
1452, 48.080662321655, 68.091102342461, -2.0116908037827
1453, 55.342981496172, 63.667738595049, 15.762670906629
1454, 55.485488154475, 64.235956801855, 14.007675253636
1455, 51.700815881279, 65.441323672071, 4.4241129627502
1456, 49.492886010769, 67.365688273573, -0.7583616473663
1457, 55.882963602139, 68.664214511707, -6.3238068260311
1458, 54.361859913731, 61.495752958547, 15.159899274249
1459, 55.186322679774, 69.259364006959, -7.5631151316409
1460, 46.054358634771, 64.141647735251, 13.56843989452
1461, 49.860550026939, 64.565187154194, 15.07575808623
1462, 49.552709839663, 66.763063102889, 0.45336400152242
1463, 51.02462962489, 67.571213394631, -0.7657814400747
1464, 46.466814592912, 65.499932363063, 6.8052719274388
1465, 53.07116198036, 61.955649224471, 15.946024053608
1466, 47.181021405728, 67.118593013425, 1.9377222215409
1467, 58.499477586775, 67.477569046015, -4.1452209270044
1468, 52.416187168253, 63.797356296787, 10.882385527417
1469, 54.514223507317, 66.088804022035, 3.3193903305919
1470, 52.679006304815, 64.412523828201, 15.577913122799
1471, 51.380441763262, 68.191474032949, -4.998106900984
1472, 52.417988245481, 62.969793000654, 14.393375723387
1473, 51.298524989238, 69.233163961587, -8.3839217663553
1474, 55.978611379217, 64.966424697598, 7.6094330928563
1475, 55.254061502093, 62.297823464166, 12.24317976649
1476, 57.891148987165, 62.269347775429, 11.87799192774
1477, 48.071790930248, 68.3917251218, -6.5086317519373
1478, 47.911076657734, 67.336304737224, -0.66012560269102
1479, 56.403833871024, 64.27162551455, 12.658003610801
1480, 56.73016564306, 62.364032239221, 16.67266943298
1481, 46.892169264187, 63.092830219395, 16.531919240997
1482, 58.475053504275, 63.599407001623, 7.2836023618711
1483, 54.427770977165, 64.895131922728, 13.913924780908
1484, 55.520235278433, 64.899611477934, 11.779261899372
1485, 46.204321502231, 64.451835718367, 10.958356609021
1486, 58.205107427113, 66.953167214545, -2.4250106664074
1487, 55.696976728106, 66.486642482512, 0.62911118400252
1488, 53.513317504902, 61.598266311071, 17.334670485905
1489, 57.377351987262, 62.898808355394, 14.109464942577
1490, 46.900106773926, 67.445323213576, -2.5482422282353
1491, 48.667206761902, 69.227937207387, -8.4979771013288
1492, 49.64687552094, 64.78148264229, 8.4567990015194
1493, 48.739673086834, 63.097899739067, 17.094307286906
1494, 45.957213389269, 64.350851691219, 12.447381012906
1495, 54.921765786777, 60.413669647577, 16.681476368957
1496, 50.689678698302, 62.568430378423, 17.218946345189
1497, 52.982168905498, 63.223651258518, 12.076978650701
1498, 50.520225156316, 68.247686062914, -6.2392806418243
1499, 51.04144423492, 64.402591270188, 17.176742388716
1500, 55.433870446644, 60.716043622457, 15.404203550629
1501, 47.739303299168, 67.714918050071, -3.3035657962315
1502, 57.870668905486, 65.761816486843, 3.0837272504734
1503, 51.853825388703, 63.659028614182, 12.112106656029
1504, 47.756394451773, 65.719214153946, 4.191816924813
1505, 47.224838477358, 66.033185612173, 5.5188581330074
1506, 54.676678771955, 62.663643659682, 11.047693342878
1507, 45.833787064621, 66.347178704971, 2.1437317119285
1508, 46.171667280259, 65.854263585272, 4.2571723906142
1509, 53.755598775649, 66.070136700896, 7.9226250800083
1510, 53.648114456062, 66.215484210823, 1.2220949818681
1511, 53.261380791398, 65.6281872514, 10.280545920413
1512, 52.704071955229, 68.167966446204, -5.5399536457838
1513, 53.803647022475, 65.041906582938, 4.7735477439981
1514, 58.023344906522, 68.140464962183, -6.4571617567702
1515, 56.886464205421, 66.559431585467, -1.5457177176294
1516, 53.506555458897, 64.536684874568, 7.0068881171963
1517, 58.947150588792, 66.29559131888, 0.69151436851272
1518, 56.318299905764, 61.59641667916, 13.388417300159
1519, 52.501904042237, 62.421667478861, 17.722794862395
1520, 54.245776129826, 64.259493726194, 16.254086505712
1521, 51.029301764984, 62.796434657891, 15.897414984397
1522, 51.830495231162, 66.031637793461, 7.5367995013335
1523, 53.700653906745, 69.041442072143, -3.7299695468786
1524, 46.423112814883, 66.637031050752, 0.9849483585764
1525, 46.413923703945, 67.139748329757, -0.83232304205973
1526, 49.251690735809, 65.687648333116, 10.510011550969
1527, 52.336562982265, 66.696995620279, 5.3721046644168
1528, 47.288970754236, 68.680310942626, -7.65627511797
1529, 49.46840414005, 68.84072243276, -3.5130873631979
1530, 54.412576409321, 65.161480905725, 12.652626936437
1531, 54.705911370642, 65.256599404724, 8.7270109945687
1532, 49.198303778516, 63.222566945286, 14.410513404417
1533, 48.969245172581, 64.333309041078, 9.5888043093442
1534, 53.024703209965, 67.51814590094, -3.250880027588
1535, 53.387741947495, 68.243581666337, -1.7268409332608
1536, 52.790458892081, 64.071310475041, 17.661917946378
1537, 55.847517673605, 63.229151870272, 17.568765554393
1538, 52.113287477907, 64.760861495363, 6.6456446678398
1539, 56.5161320348, 64.478143765753, 10.13979790469
1540, 59.438317327618, 66.992213274768, -3.2844443134537
1541, 47.994835742117, 64.392819716582, 16.958480858284
1542, 58.840386618599, 68.688418235091, -7.6494063070415
1543, 53.353971080046, 61.936683642852, 14.561915049574
1544, 51.589968292537, 66.310374101106, 1.6056676744826
1545, 52.163626445187, 65.753397668918, 3.2671341316748
1546, 54.491552503151, 63.185833842793, 9.8084383092318
1547, 45.171693955285, 64.823225207524, 9.0942214610909
1548, 47.309920239433, 68.152682014042, -5.5149280914967
1549, 58.579641650272, 64.163480812499, 6.2644994826599
1550, 50.928014100478, 65.151017880517, 14.448894226069
1551, 53.222215086962, 62.765408427162, 13.37857040784
1552, 56.148550167485, 64.431203835483, 4.890010244883
1553, 49.777567908143, 69.534038191898, -8.5038227275687
1554, 50.864539214127, 64.719421139514, 15.770404069495
1555, 54.279099166888, 66.073309171388, 5.5647154267904
1556, 44.846282649885, 63.717282286728, 16.121291495713
1557, 45.082995807733, 63.844952471514, 14.70377568849
1558, 50.472429169174, 65.498844347185, 12.22102024157
1559, 48.315793536167, 65.086286855584, 13.369915603821
1560, 58.221658723292, 65.948528900995, 1.8501254426064
1561, 53.329563560309, 64.903830340125, 14.596424988565
1562, 49.830906704254, 65.121284427183, 5.3408240766577
1563, 56.388309230971, 62.911685766888, 8.6794127220489
1564, 52.129636416472, 64.974773274097, 14.00262409998
1565, 50.970150223108, 67.432904270562, -2.7805715048912
1566, 55.847752186475, 63.670500845727, 6.7084357983915
1567, 52.363604552826, 65.309212946337, 12.929765271754
1568, 51.956320858396, 63.053892484942, 13.400268348265
1569, 54.993845646539, 69.385885806748, -5.8191783057244
1570, 55.497241726199, 65.142417735939, 10.529462949393
1571, 53.274684776005, 65.784456627135, 9.0891374431492
1572, 54.90946329889, 64.403842183346, 14.971175409882
1573, 51.294286020196, 66.000200485562, 10.41711742216
1574, 50.128393308739, 65.901659992347, 3.1459737834095
1575, 45.667818667311, 65.885615662871, 5.651152117897
1576, 55.637439856349, 61.491927990946, 17.74087366881
1577, 53.264196718186, 67.932657895979, 0.5336805907316
1578, 53.121332631748, 66.363318829206, 6.8713975837935
1579, 56.038298037228, 65.739137144474, 5.7093636233063
1580, 58.358175555518, 63.383199906631, 8.6045937498245
1581, 54.892295225172, 66.27256092952, -0.32489491463402
1582, 57.232378012108, 63.640917401028, 11.963182153689
1583, 48.810574422595, 64.864504938976, 14.594730203262
1584, 56.497396073001, 61.98924789542, 11.447204380247
1585, 49.16725488825, 64.492731990877, 17.506614533697
1586, 50.655495168454, 63.871234304811, 11.420790100033
1587, 54.202836082992, 67.673416899647, -4.1138719515198
1588, 52.276325143749, 64.273137748025, 8.6933429174894
1589, 51.793075143063, 68.782281614847, -2.7895674890288
1590, 49.309828620438, 65.278546752808, 4.1357531501847
1591, 59.302118570024, 66.680687372106, -1.8048636826324
1592, 55.119683058805, 67.912118633598, -5.342842219311
1593, 50.135795940284, 62.986835889222, 15.155738946923
1594, 47.164001240723, 63.28377280063, 15.167021273687
1595, 51.905123071123, 67.929588675606, 0.25994103303412
1596, 54.080354697006, 62.487687154164, 12.395531169508
1597, 57.05490686182, 62.780742529737, 15.476091891688
1598, 51.367263586835, 64.065351066366, 10.024038888901
1599, 55.122492744533, 61.113515401104, 14.35412078015
1600, 56.332253010989, 65.005208925707, 8.7370362248828
1601, 53.961547350674, 69.038762154015, -8.1782899263933
1602, 54.367256361072, 66.676380839034, 4.6157957805829
1603, 47.119219244728, 65.987769891471, 7.9767498175238
1604, 57.666776832237, 64.92167439518, 7.1175284828313
1605, 49.85112696234, 64.071760604289, 10.339228130336
1606, 54.664202103482, 62.568174854174, 17.849211386339
1607, 58.698887161015, 64.577328640655, 4.9159425158259
1608, 57.281503351074, 61.704637267851, 17.453384677995
1609, 48.722789554137, 66.200013564353, 7.6480164455563
1610, 48.715570864474, 63.758585285937, 12.442571856763
1611, 52.113858345587, 66.146216187856, 8.7258769630456
1612, 52.453409063915, 65.731344334088, 11.113902299594
1613, 50.691283559095, 66.564555659675, 6.9878213390119
1614, 50.870074725862, 64.861422444384, 6.5628280924421
1615, 52.159811678677, 62.301925682123, 15.394693024514
1616, 53.218189834926, 69.455802751064, -4.6444204441685
1617, 47.465669683001, 65.764443731586, 9.5536669400672
1618, 57.263636639819, 61.291518405514, 14.064684638589
1619, 52.304203618951, 67.118346034675, 4.0290988535284
1620, 55.39002141012, 65.021887936263, 13.128262923944
1621, 49.750623596698, 66.744717883668, 5.6224941615451
1622, 55.9802135654, 65.808527892983, 2.0158022517303
1623, 52.390661433922, 67.361036976576, 2.6980377996164
1624, 47.178171949824, 64.567956942754, 15.979441909456
1625, 45.860071283625, 63.23202658842, 16.57091893861
1626, 52.750464325513, 64.969213133726, 4.7359520103178
1627, 54.831702014341, 63.957153658002, 17.605032191357
1628, 53.861272056431, 68.014445726912, -0.6897226979417
1629, 55.775829317444, 63.492477186381, 7.8655706325454
1630, 55.879708115073, 63.057870164054, 13.52006807154
1631, 48.655153484619, 67.522401171341, 1.8701229857225
1632, 48.186000713452, 66.502499682274, 0.89639233726218
1633, 56.820931867928, 62.171781708605, 10.227640275282
1634, 49.212851069862, 64.808902283479, 16.162363855629
1635, 55.871818776768, 67.210999207924, -3.7274898726253
1636, 45.386672233071, 65.984531221837, 3.1751973874365
1637, 49.437868031032, 69.528539059582, -5.9850054781239
1638, 48.427079292971, 69.056639608403, -5.443347210452
1639, 57.291872212717, 63.369045563366, 6.7543443201104
1640, 54.243337608138, 62.625108287449, 15.89386230094
1641, 49.824635920609, 66.11891887814, 8.9650551349179
1642, 49.305660619575, 65.250088617747, 12.762651219829
1643, 48.627559861867, 63.867428871006, 11.069927077499
1644, 47.038477775001, 64.914115413582, 13.103353811501
1645, 56.299913435253, 68.515267580794, -3.0284083389393
1646, 45.593013558242, 65.35802441067, 7.9767948230165
1647, 53.406532496315, 66.762465682862, 5.1986358064766
1648, 49.710040450504, 63.051940262354, 17.643508987759
1649, 59.382643842992, 67.894701752328, -5.8258853834133
1650, 53.8118712849, 64.278390035173, 5.8068852373802
1651, 50.996123886917, 66.70803407876, 5.3376930199313
1652, 48.449124028338, 65.483035903425, 11.632707480284
1653, 48.914342080852, 66.084968136504, 2.4244758115819
1654, 46.907219696309, 64.158180481951, 9.7197829663271
1655, 50.219908552583, 65.661838834749, 11.01355766054
1656, 55.398290197853, 66.781381288689, 3.8476541379501
1657, 55.84203750596, 59.924955045903, 17.486272583258
1658, 53.231209642183, 67.615332498762, -4.4849284187497
1659, 50.888622937461, 69.402939279567, -5.5785006344274
1660, 50.619674001731, 69.432270371425, -4.2966979887999
1661, 46.868857907425, 68.03412897696, -6.7417546271231
1662, 56.268737710433, 67.214384426135, 1.5757618297513
1663, 50.987829844413, 64.464553404805, 8.9212237344974
1664, 49.006858268561, 67.078995338732, 4.3713237904136
1665, 50.282904478973, 67.284274452616, 3.6956857602191
1666, 54.451363060843, 63.356391025323, 8.5917168835996
1667, 54.203817940712, 67.633847769901, 1.4387027872338
1668, 54.2965231978, 67.248010944351, 2.771683077737
1669, 53.68572939626, 67.117973523413, 3.6688670744983
1670, 53.135051851015, 64.532335864935, 16.651975326168
1671, 49.9928521397, 67.078766664565, -1.6988058925816
1672, 59.57510632346, 67.335925943472, -4.4932447666416
1673, 45.974046387588, 64.902161953231, 9.9033537700143
1674, 44.975247119834, 64.548191922162, 10.51398228214
1675, 53.364871501796, 63.905888948532, 8.0235576299124
1676, 55.773554580501, 62.098000781279, 15.482940876571
1677, 57.136820758215, 59.99126824438, 17.130418890099
1678, 50.855398629144, 64.945620167161, 5.1137049704302
1679, 57.964022184019, 63.444647772932, 10.977098263928
1680, 55.230198274154, 66.597593217761, -1.5189331727522
1681, 54.242307172101, 65.500421981772, 11.356132922906
1682, 56.277679514976, 69.108411382598, -5.2013531433587
1683, 54.543266265955, 66.12780427712, 0.61028377176908
1684, 58.528016021944, 65.239233058934, 3.9350681843811
1685, 54.031087411526, 60.971650604854, 16.128154370757
1686, 55.873802472505, 63.36393875153, 11.791790781104
1687, 53.83924666611, 66.940071832641, -2.1821226645209
1688, 53.637933220119, 63.083915010849, 10.985889464347
1689, 50.17282130317, 68.011821891034, 0.20181736693281
1690, 51.871038923369, 67.528250142648, -3.8818236637347
1691, 54.847363435038, 69.251092868852, -4.3840806362415
1692, 53.412223222847, 65.292249223144, 13.349158722916
1693, 47.606688802358, 69.531033208592, -8.6976795104366
1694, 44.94153463432, 64.285284393855, 11.659604493765
1695, 44.867021395289, 63.997770721378, 13.208798146232
1696, 48.651830835819, 65.713929557839, 9.4986291300849
1697, 46.8745808668, 67.843063675099, -4.352767519518
1698, 47.698437685519, 64.690802973709, 7.6034999118881
1699, 56.355017991053, 66.291208765916, 4.7167552438646
1700, 57.256634151625, 64.262235159738, 9.1893004057204
1701, 56.317788412031, 63.600913255285, 14.976423073558
1702, 52.627414440337, 66.089401795361, 1.8096401605487
1703, 53.788785020005, 66.386662427575, -0.57218177123012
1704, 59.349870991612, 66.495640731687, -0.39446952483878
1705, 56.735175589822, 64.500535877494, 11.313635226971
1706, 48.900767277717, 64.679296395305, 7.4381798386094
1707, 51.979396028463, 69.665054386355, -4.8701089950682
1708, 50.850521943008, 67.496951948046, 2.2714083470905
1709, 52.016892281025, 64.678862281961, 16.638821250123
1710, 51.789107432008, 63.560054459975, 17.827917830182
1711, 57.077735386662, 64.896517360953, 3.4328591146751
1712, 54.990341213173, 62.798805997464, 14.783289671873
1713, 57.238267011484, 67.607409116395, -0.39202611420454
1714, 56.204688726034, 67.518625565867, -4.9153833346073
1715, 57.660321971648, 61.343835813018, 16.250846341389
1716, 56.580962361496, 64.241135198694, 13.809419183998
1717, 53.123109186766, 66.304886816846, 0.26390696216398
1718, 47.933445036085, 67.108076776901, 3.2935221659593
1719, 53.13235477537, 66.907727916136, -1.3834990058042
1720, 51.826157642728, 66.490021853727, 0.2854993008625
1721, 51.525757266286, 68.071306158261, -5.951277222619
1722, 55.693541804357, 66.237280600444, 6.7161178138043
1723, 49.939060898329, 67.711076843222, 1.3679617744761
1724, 46.532140947331, 64.61229093783, 14.619950649228
1725, 55.923720532579, 66.929242588236, 2.818477383951
1726, 51.627063260001, 69.477317399665, -3.6442698325221
1727, 48.741390854136, 68.411860870116, -2.8928048762165
1728, 57.030429259012, 60.270307513977, 15.732809919834
1729, 53.226559597612, 67.665491750055, 1.8909267576531
1730, 55.912253095835, 64.816310165672, 3.9456875575674
1731, 57.712109214743, 67.052730613116, 1.2721455007957
1732, 54.37964899738, 61.08484584478, 17.769084586621
1733, 47.409290833499, 63.884142008928, 10.91314425908
1734, 52.8113072562, 68.351894527392, -6.8865324592595
1735, 51.093978387546, 66.086831168393, 9.3678605028483
1736, 48.716736124896, 63.356797910732, 13.459280185703
1737, 47.948983776193, 64.351097042755, 8.96455676952
1738, 50.356541836347, 66.345494636665, 1.2177087656802
1739, 55.256787196049, 68.618977654378, -2.6100573050635
1740, 51.753890714475, 62.095884703331, 16.589965748378
1741, 58.345066197966, 65.858162860157, -0.28145446212758
1742, 56.237203602124, 68.330514173472, -7.6095857035483
1743, 54.891506185456, 68.1954128432, -6.6098101569943
1744, 46.131640925653, 64.51043072744, 16.441939041018
1745, 57.540256626849, 63.437334568263, 13.050133448412
1746, 48.90921068404, 67.88022931865, -5.4023062356203
1747, 48.950029111266, 65.024553125091, 6.2706040043016
1748, 56.627482771199, 67.457761448999, 0.47667599255197
1749, 55.268062906035, 68.077812649239, -1.4398409711666
1750, 49.992967110101, 66.393852219963, 7.873615333763
1751, 51.010241587701, 62.860231714457, 14.28235388057
1752, 54.296806449972, 63.615135745767, 13.885162161772
1753, 51.064092928938, 68.179926757051, -1.7889706369656
1754, 53.450037941946, 65.426164655994, 3.3431674100141
1755, 48.723422278521, 66.522495194374, 6.4751383365794
1756, 55.628382263379, 62.330247551192, 10.723601213315
1757, 55.215134388535, 64.097634780712, 5.6965986919047
1758, 50.556693212183, 68.764844433907, -2.5697735080072
1759, 50.211604820497, 67.794126187287, -4.5613545509857
1760, 49.246651401107, 68.115034656975, -6.2997455991713
1761, 49.871411212244, 62.492888719613, 16.394417972044
1762, 53.810256160572, 64.133812103319, 17.843489945571
1763, 47.170324442262, 65.39976010086, 10.622140891546
1764, 56.77947643134, 68.781066191497, -3.8221017825369
1765, 57.936173767348, 68.408064474318, -3.9311669354961
1766, 47.373822122619, 63.534680852806, 12.924990003036
1767, 49.832312312828, 63.797215282815, 12.313179370513
1768, 56.730645048337, 66.283829373296, -0.52852510314711
1769, 58.354369058849, 68.211669889185, -5.2102350167036
1770, 55.407242975893, 67.648276457264, 0.85217783937991
1771, 51.945387099232, 66.794493544892, -1.0263231210756
1772, 54.775575375797, 67.058622371752, -3.3227362589073
1773, 46.956745975579, 65.179349047195, 11.813518645779
1774, 57.442758299668, 64.060628616352, 5.3152768464316
1775, 57.971426045802, 66.769330478452, -3.5516428841979
1776, 50.562989614283, 65.411692350037, 4.0666396860015
1777, 50.314834886116, 66.69076901839, -0.40405575950846
1778, 54.439316697818, 65.165646164916, 9.7646942787551
1779, 54.542285870517, 63.792739710365, 11.790785636754
1780, 47.282046819042, 67.951855503384, -1.3496817572368
1781, 56.869745622899, 68.087041242718, -2.2746993415538
1782, 56.487567442833, 67.884459490251, -1.2403043054733
1783, 48.961679811038, 66.586872420222, -0.27126443914051
1784, 53.059254900447, 63.426431623175, 15.894356842865
1785, 56.483469601225, 65.895562591104, 0.88204160963726
1786, 46.216449993977, 67.566121365124, -3.2828230903061
1787, 45.239334391351, 65.419143390913, 6.6924178704406
1788, 51.814355068153, 69.965323853599, -7.2025007257474
1789, 50.818758767987, 69.672122055926, -6.6595755966703
1790, 54.562091473412, 63.88520887743, 6.5020465049459
1791, 51.845309300367, 65.817404521664, 12.16824146808
1792, 50.118461071279, 68.361281207891, -1.2553461693293
1793, 52.186190690418, 68.204803190017, -0.81834411388346
1794, 51.249530288117, 67.07122934839, 4.4367356334019
1795, 52.717591488515, 69.322273968201, -3.4841466185383
1796, 56.747708702025, 67.96080910275, -6.3826012397951
1797, 57.907021260583, 62.188792259946, 13.426430306434
1798, 56.761639641289, 66.624536295244, -2.6799594895297
1799, 51.97303437104, 65.11636486325, 15.259082960853
1800, 51.471141316618, 68.492460551825, -7.0766964506492
1801, 46.537442175672, 68.926181856945, -8.3937253780191
1802, 57.888934368743, 68.175848807062, -2.9901867070069
1803, 53.886492628813, 69.67973187894, -5.4395374851135
1804, 48.765429587536, 67.930866813262, 0.0050860002543773
1805, 49.504561082938, 67.422138088168, 3.0730811098897
1806, 57.361035182009, 66.171726348216, 4.0427633635929
1807, 51.498923964881, 63.543123119613, 11.009987931185
1808, 57.495592130127, 67.166448964502, -4.6253940011794
1809, 48.985706405992, 68.009687911657, -1.4378837213784
1810, 55.878261597614, 62.840162932055, 9.6830977820915
1811, 51.81601783983, 64.774126926097, 5.5431431566024
1812, 56.319268996804, 69.555067980492, -7.712365833965
1813, 51.014344158576, 66.462157711958, 8.2733003535871
1814, 53.042610178908, 69.917808898996, -7.2430448657319
1815, 55.531230161174, 65.37021625372, 3.0318037517594
1816, 47.960626548373, 62.914164408139, 16.00620134609
1817, 49.061283779432, 62.983787916528, 15.613422896501
1818, 46.938911815978, 67.652891033947, -0.0016589711209783
1819, 55.472595539893, 63.811268380904, 10.606068902757
1820, 56.928322309534, 66.633299553725, 2.958982913219
1821, 54.459597728077, 64.973670719042, 3.8735738836053
1822, 53.566605759139, 62.568223666143, 18.14337181641
1823, 59.020299916365, 65.554754429126, 2.7241737691606
1824, 54.245585136426, 69.983605277373, -7.6340403701016
1825, 59.810829965461, 68.327701292258, -6.8876472671562
1826, 51.90932137854, 66.6758686336, 6.5396135291405
1827, 58.161425634725, 67.271686261976, 0.07420427132015
1828, 46.079244463227, 67.184146570658, -1.7743115004061
1829, 57.004059904479, 65.413643433145, 2.3256587336229
1830, 56.214580382447, 63.314425166708, 16.382122709577
1831, 51.801570056995, 63.767349812363, 15.759894517567
1832, 54.145997958636, 68.342048684291, -7.3045375603714
1833, 56.38251552667, 60.797359691124, 14.433927813064
1834, 57.694809493411, 65.3768539839, 5.9248137064297
1835, 48.924423594204, 67.639501103803, -3.9259986919651
1836, 55.794467908263, 60.079933143993, 16.159556606404
1837, 52.511827830842, 64.09943499271, 7.4674133777199
1838, 54.56202878746, 66.241931761958, 6.6612476140146
1839, 54.086709755555, 65.707499579619, 2.1364614877916
1840, 57.175521246245, 69.086048243229, -6.2356643900341
1841, 55.255918636825, 62.916437160716, 8.795977600885
1842, 46.945436942452, 63.155679957813, 14.019640495553
1843, 45.818048907287, 66.851261019333, -0.0012377994513794
1844, 56.08466981161, 61.41057678969, 12.294660559795
1845, 53.851656055931, 64.052029174807, 12.742132274232
1846, 58.316378422979, 63.187475270755, 9.8868445199933
1847, 48.029355690544, 66.757300070121, 5.0567529591441
1848, 51.478546437595, 62.250713965858, 17.711647176126
1849, 46.841063039264, 63.598707267302, 11.754306029144
1850, 58.062205170346, 69.328062564957, -7.1268387938098
1851, 54.32924541044, 68.43364855743, -1.8485333764663
1852, 50.006142585426, 64.157767252887, 9.2108913064174
1853, 53.756244942815, 64.795344588862, 15.502717031215
1854, 50.2794689839, 65.330943084246, 13.306671158906
1855, 55.626955648948, 65.431516232168, 9.466500002931
1856, 57.920718952729, 67.708808713987, -1.4220318272904
1857, 47.541003598935, 67.617092936392, 0.96560562713181
1858, 49.55161592831, 65.238361104382, 14.013316801405
1859, 49.970363841837, 64.661556515453, 7.3022851741741
1860, 55.201516493511, 66.568125173382, 5.375726320495
1861, 46.762109975122, 64.479984357437, 7.9738289811232
1862, 49.325828991664, 66.224106631365, 1.3632852882329
1863, 47.722134481628, 65.995114294939, 2.3401761579219
1864, 49.8862940927, 67.692228736877, -3.5568598195902
1865, 50.926845835709, 63.363033600945, 12.932318932211
1866, 51.116205610927, 66.986756397291, -1.9688337802174
1867, 55.218098985119, 63.618566829079, 16.763158427215
1868, 55.236920306494, 65.683151094914, 1.2544431759296
1869, 57.309337830522, 62.924127881856, 8.1278890589368
1870, 57.796587704186, 62.200246916663, 10.694395863892
1871, 48.07332959192, 63.005932917496, 14.421337919704
1872, 56.540119448955, 60.769659958188, 17.927461282562
1873, 53.493822478307, 68.910722600318, -2.7247567269533
1874, 48.666700694246, 68.296237815023, -7.6195396946314
1875, 52.428562058976, 66.101642472485, 9.9289213788813
1876, 47.235503615095, 66.520513090885, 0.10358179259999
1877, 45.069163365604, 65.86278236955, 4.5448516249604
1878, 55.050252637364, 61.491246799254, 13.127778586903
1879, 52.741766103942, 61.398957177889, 16.81615841511
1880, 47.100720501289, 66.823618568613, 4.2242921359899
1881, 55.813097267375, 66.025302524284, -0.34674718028235
1882, 52.001387919839, 67.814252844159, 1.2660410466833
1883, 57.042409325685, 65.362833622323, 7.9200555260134
1884, 56.67574525552, 65.676125616545, 6.7468375754588
1885, 59.295120267033, 65.844670839366, 1.556892214456
1886, 54.613662296248, 69.083736792247, -3.1998460489066
1887, 46.112716691734, 63.107069414662, 14.620910030318
1888, 47.694550899977, 63.185992358131, 17.306173035398
1889, 46.874887916553, 64.145387952881, 17.184625705061
1890, 48.634136125786, 67.233389975261, -2.67116069105
1891, 53.569314511682, 64.862195832176, 8.2669741378217
1892, 54.868309054813, 64.644182344129, 4.8819928461394
1893, 50.160957924565, 64.84531026785, 17.08287796694
1894, 56.537861039597, 62.446546404259, 17.94405892296
1895, 54.875645321737, 66.996319469534, -2.3698374760192
1896, 50.014687967476, 68.469032800238, -7.8088408872348
1897, 51.040080615676, 66.017693113261, 11.502301410258
1898, 51.915178491602, 64.656724377146, 17.85346539335
1899, 57.756985657713, 65.616400946731, 0.93114688836845
1900, 44.124780589863, 63.758404276032, 15.374922618831
1901, 48.156460070595, 65.847772054021, 10.560091588141
1902, 57.744518826676, 64.707223360266, 8.3310618987147
1903, 55.343776626268, 65.859591502317, 7.8857504277127
1904, 48.64206121626, 66.898717511503, -1.465607790247
1905, 48.28561227968, 65.588741003994, 3.3206131383446
1906, 50.615952332794, 63.71512570238, 17.914464583375
1907, 57.285351432457, 61.373927373999, 12.847960973296
1908, 53.217075155974, 63.787773645144, 9.8976194381739
1909, 47.714236510009, 66.890806912015, -1.8940028529146
1910, 50.837098995608, 65.967770457096, 2.2805663526484
1911, 51.337543965351, 64.38056433575, 7.5628997001922
1912, 47.855290856319, 64.962908603809, 14.958274918929
1913, 57.782290820875, 66.64768233257, 2.5009789171433
1914, 57.512856501921, 64.161297648105, 10.262840692382
1915, 53.664314493807, 61.928626498284, 13.243472145099
1916, 53.54277686157, 64.413333907074, 11.353498342936
1917, 57.727209346031, 61.736245997592, 14.96579120513
1918, 48.208154496574, 68.76843951942, -3.5819873763175
1919, 59.869487798865, 68.649719664295, -7.8782178068085
1920, 60.746995789916, 68.303236259935, -6.9899110072695
1921, 45.288587227612, 66.438983832729, 0.93190710403576
1922, 60.522363070261, 68.110760365084, -6.2479428842188
1923, 46.251575839703, 67.820079336668, -5.090052334277
1924, 44.656698378247, 65.218667368248, 7.5729247448939
1925, 46.309102870548, 67.964522153927, -5.9064054170987
1926, 44.148240482707, 63.731831379978, 14.033596023777
1927, 60.127313804873, 67.511378530185, -5.4520496021787
1928, 44.61491774599, 65.098117919598, 8.4301003116053
1929, 60.687957396795, 67.737956388429, -5.6851714628352
1930, 60.498839330502, 68.245873329728, -7.5498219894304
******* E L E M E N T S *************
*ELEMENT, type=C3D4, ELSET=Volume1
1, 237, 1438, 1464, 1505
2, 1308, 1445, 1491, 1553
3, 855, 1459, 1457, 1569
4, 1731, 1748, 1785, 1662
5, 801, 1440, 1534, 1690
6, 1394, 1621, 1422, 1613
7, 37, 1626, 1404, 1650
8, 1389, 1372, 1752, 1561
9, 1470, 1561, 1472, 1564
10, 531, 37, 1404, 1650
11, 1447, 1458, 680, 1599
12, 801, 1440, 1690, 1565
13, 1389, 1497, 1551, 1568
14, 1387, 1474, 1451, 1531
15, 1389, 1372, 1561, 1472
16, 1425, 1474, 1406, 1566
17, 1144, 1528, 1491, 1874
18, 885, 1923, 1548, 1697
19, 1394, 1422, 1621, 1562
20, 231, 1737, 452, 1410
21, 142, 1583, 1401, 1912
22, 970, 1574, 1590, 1776
23, 720, 1731, 1662, 1748
24, 1486, 907, 1591, 1540
25, 690, 1654, 1435, 1673
26, 1451, 1474, 1387, 1629
27, 531, 1404, 1516, 1650
28, 1634, 143, 141, 1541
29, 537, 1438, 1603, 1464
30, 537, 1438, 1464, 237
31, 1389, 1503, 1497, 1568
32, 680, 1458, 1447, 1543
33, 1457, 1459, 855, 1812
34, 72, 1395, 1533, 1737
35, 759, 1406, 1566, 1639
36, 1435, 1547, 690, 1673
37, 1406, 1474, 1425, 1604
38, 758, 1545, 1455, 1626
39, 803, 805, 1393, 1512
40, 1474, 1531, 1387, 1600
41, 142, 1401, 1583, 1634
42, 1641, 1526, 595, 395
43, 1338, 1478, 1809, 1804
44, 1641, 328, 1410, 1696
45, 1819, 1778, 1570, 1387
46, 1470, 1472, 1377, 1564
47, 1486, 907, 1540, 909
48, 795, 1534, 1398, 1587
49, 934, 1442, 1542, 931
50, 805, 1471, 1393, 1512
51, 1294, 1930, 1367, 1920
52, 1641, 1526, 395, 1696
53, 1144, 1477, 1528, 1874
54, 1286, 1406, 1552, 1757
55, 1475, 1756, 1686, 1584
56, 183, 1570, 1484, 1681
57, 1476, 1745, 372, 1582
58, 304, 1447, 680, 1599
59, 1286, 1566, 1406, 1757
60, 1787, 1924, 75, 1646
61, 1485, 1494, 1849, 1773
62, 1458, 1465, 495, 1685
63, 141, 1541, 1401, 1634
64, 497, 1578, 1527, 1647
65, 1639, 1629, 1869, 1425
66, 495, 1465, 1458, 1543
67, 1255, 1923, 1925, 1314
68, 1819, 1778, 1387, 1546
69, 803, 1512, 1393, 1658
70, 1294, 1930, 1920, 1108
71, 1457, 1812, 858, 1840
72, 1634, 141, 143, 142
73, 1193, 1411, 1623, 1729
74, 1923, 1925, 1548, 1151
75, 1424, 1481, 663, 1594
76, 1639, 1629, 1425, 1566
77, 759, 1406, 1286, 1566
78, 1372, 1472, 1470, 1561
79, 1608, 1677, 1381, 1715
80, 1620, 1716, 1454, 1479
81, 1474, 1600, 1387, 1629
82, 1430, 1530, 539, 1692
83, 1910, 1545, 1544, 1429
84, 1497, 102, 1551, 1568
85, 1896, 1789, 1473, 1553
86, 1082, 1442, 1542, 1245
87, 539, 1530, 1430, 1681
88, 1643, 1533, 1526, 1605
89, 1151, 1548, 1923, 1697
90, 1261, 1545, 758, 1626
91, 1620, 1716, 1479, 188
92, 142, 1401, 141, 1912
93, 141, 1401, 142, 1634
94, 904, 1540, 900, 1591
95, 1096, 1544, 1545, 1702
96, 1251, 1482, 5, 1549
97, 231, 452, 1737, 660
98, 1641, 1410, 328, 1609
99, 1428, 1684, 706, 1607
100, 663, 1481, 1424, 1625
101, 531, 1516, 1404, 1538
102, 1538, 1578, 1404, 1826
103, 1827, 1731, 1748, 1402
104, 1425, 1566, 1406, 1639
105, 1497, 1503, 102, 1568
106, 647, 1654, 690, 1673
107, 1389, 1472, 1561, 1564
108, 1406, 1474, 1604, 1884
109, 927, 1930, 1825, 1367
110, 645, 1468, 409, 1598
111, 1408, 1558, 281, 1791
112, 1393, 1471, 805, 1690
113, 1460, 1557, 582, 1887
114, 907, 1540, 905, 1591
115, 33, 1562, 1335, 1590
116, 576, 1860, 330, 329
117, 981, 983, 1358, 1742
118, 967, 1440, 1589, 1873
119, 37, 531, 1404, 1538
120, 1442, 1514, 1542, 1850
121, 1306, 1429, 1619, 1794
122, 1909, 1066, 1236, 1904
123, 1379, 323, 1492, 1859
124, 1123, 1473, 1553, 1896
125, 1613, 1621, 164, 1651
126, 1448, 1486, 894, 1515
127, 241, 1557, 1424, 1556
128, 606, 1504, 1450, 1508
129, 1592, 1682, 1569, 1691
130, 978, 1445, 1553, 1789
131, 647, 690, 1547, 1673
132, 1927, 918, 1672, 1649
133, 1380, 1406, 1579, 1884
134, 1547, 117, 442, 1674
135, 981, 1358, 1442, 1742
136, 1081, 1591, 1448, 1856
137, 1461, 1550, 423, 1554
138, 1540, 1802, 957, 1467
139, 1135, 1455, 758, 1545
140, 289, 1506, 1475, 1756
141, 1892, 1555, 1579, 1400
142, 1404, 1527, 1578, 1647
143, 1574, 1545, 1910, 1429
144, 1409, 1759, 1529, 1835
145, 287, 1475, 1506, 1596
146, 1316, 1414, 1739, 1886
147, 595, 1405, 1573, 1655
148, 1522, 1578, 1538, 1826
149, 964, 1930, 1281, 1919
150, 964, 1930, 1919, 1825
151, 1408, 281, 1567, 1791
152, 1643, 1767, 1421, 1610
153, 537, 1438, 237, 236
154, 231, 1410, 452, 1706
155, 1632, 1804, 1478, 1857
156, 595, 1526, 1405, 1655
157, 798, 1534, 795, 1587
158, 1521, 1554, 1499, 1831
159, 1499, 1521, 1392, 1554
160, 1410, 1492, 452, 1706
161, 1496, 1499, 1376, 1521
162, 1392, 1499, 1496, 1521
163, 934, 1442, 931, 950
164, 1144, 1491, 1445, 1874
165, 1423, 1387, 1778, 1546
166, 803, 1393, 805, 1690
167, 1376, 1521, 1499, 1831
168, 281, 1564, 1408, 1567
169, 1597, 1715, 203, 1480
170, 1261, 1626, 1183, 1754
171, 803, 1690, 800, 1658
172, 698, 1928, 1646, 1547
173, 160, 1424, 1557, 1724
174, 116, 1532, 1390, 1736
175, 1630, 1752, 1454, 1374
176, 37, 1538, 1404, 1811
177, 1034, 1507, 1921, 1524
178, 762, 1286, 1406, 1552
179, 1930, 1175, 1281, 1108
180, 1805, 1282, 1631, 702
181, 1379, 323, 1859, 1911
182, 63, 1698, 1464, 1861
183, 58, 1464, 1438, 1505
184, 1630, 1752, 1712, 1454
185, 985, 1233, 1553, 1473
186, 326, 303, 1500, 1685
187, 392, 1461, 1554, 1634
188, 1424, 508, 1557, 1887
189, 1597, 1715, 1436, 1917
190, 938, 1542, 1514, 1825
191, 1669, 1623, 1193, 1411
192, 1424, 1557, 508, 1556
193, 1782, 1768, 1680, 1515
194, 335, 1766, 1460, 1842
195, 1335, 970, 1590, 1776
196, 1102, 1697, 1008, 1786
197, 855, 858, 1457, 1812
198, 1929, 1180, 956, 1927
199, 238, 1410, 1603, 1609
200, 1380, 1579, 1406, 1757
201, 1308, 1445, 1144, 1491
202, 1825, 1922, 1649, 924
203, 1429, 1455, 1794, 1776
204, 762, 1406, 759, 1774
205, 1380, 1406, 1566, 1757
206, 678, 1505, 1464, 1575
207, 1767, 1586, 85, 1421
208, 639, 1559, 1858, 1583
209, 1609, 1603, 236, 1438
210, 1909, 1236, 1066, 1257
211, 274, 1494, 1460, 1766
212, 231, 1698, 1410, 1706
213, 1559, 1642, 135, 1858
214, 1376, 1465, 1416, 1519
215, 1804, 1456, 986, 1689
216, 326, 1500, 1458, 1685
217, 813, 1439, 1187, 1800
218, 1095, 1459, 1212, 1601
219, 1461, 1377, 1554, 1593
220, 1476, 372, 1745, 373
221, 1185, 1569, 1682, 1691
222, 1492, 1609, 1410, 1641
223, 1431, 1529, 1197, 1918
224, 1390, 628, 1610, 1767
225, 370, 1494, 1460, 1695
226, 1609, 236, 1603, 238
227, 1396, 1590, 1574, 1776
228, 29, 1508, 1450, 1636
229, 274, 1460, 335, 1766
230, 1380, 1404, 1516, 1838
231, 1212, 1601, 1459, 1824
232, 1656, 1668, 1469, 1669
233, 1908, 1598, 1588, 409
234, 262, 238, 1410, 1603
235, 1406, 1604, 1425, 1639
236, 1457, 1742, 1459, 1812
237, 1505, 1508, 398, 1575
238, 942, 1431, 944, 1548
239, 647, 1654, 1673, 463
240, 1804, 986, 1456, 1126
241, 1401, 1624, 141, 1912
242, 1156, 1684, 1428, 1806
243, 1533, 72, 1643, 1395
244, 1929, 956, 929, 1922
245, 1495, 1685, 532, 1732
246, 1486, 907, 909, 960
247, 1553, 933, 1123, 1896
248, 803, 1658, 1393, 1690
249, 1144, 1100, 1491, 1528
250, 801, 1440, 1565, 935
251, 1485, 1494, 1773, 124
252, 281, 1564, 1567, 429
253, 1380, 1650, 1555, 1892
254, 1180, 956, 929, 1929
255, 60, 1505, 1438, 1747
256, 495, 1465, 494, 1685
257, 1908, 1598, 409, 1468
258, 1384, 1476, 1582, 1745
259, 762, 1286, 759, 1406
260, 235, 1438, 237, 1505
261, 1562, 1621, 1394, 1651
262, 1081, 960, 1591, 1856
263, 1016, 1922, 1649, 1825
264, 1404, 1626, 1513, 1650
265, 1007, 1008, 1102, 1697
266, 1404, 1578, 1516, 1838
267, 1227, 1579, 1428, 1834
268, 1613, 1651, 164, 1826
269, 1657, 1732, 553, 1576
270, 1404, 1394, 1538, 1826
271, 1865, 1377, 1568, 1408
272, 977, 1553, 1473, 1789
273, 674, 1483, 575, 1530
274, 1553, 966, 1264, 1491
275, 278, 1430, 539, 1692
276, 537, 1438, 236, 1603
277, 938, 1514, 1649, 1825
278, 1378, 1468, 1430, 1503
279, 1787, 75, 1924, 77
280, 1340, 1517, 1313, 1885
281, 1819, 1778, 1546, 1386
282, 1555, 1650, 1513, 1892
283, 1300, 1446, 1514, 1796
284, 141, 1401, 1541, 1624
285, 1920, 1825, 1930, 1367
286, 1227, 1428, 1579, 1699
287, 289, 1475, 1584, 1756
288, 909, 1540, 1486, 1802
289, 1450, 608, 1508, 1880
290, 273, 1485, 1494, 1849
291, 1183, 1754, 1513, 1821
292, 1488, 532, 1685, 1732
293, 998, 1478, 1804, 1857
294, 894, 1486, 1448, 1591
295, 471, 1413, 1633, 642
296, 301, 326, 1500, 1599
297, 1379, 323, 1911, 1663
298, 1623, 1545, 1669, 1619
299, 402, 1558, 1421, 1655
300, 779, 778, 1683, 1703
301, 1892, 1579, 1555, 1380
302, 1446, 1514, 1796, 1840
303, 670, 1522, 1578, 1509
304, 1534, 1587, 798, 1658
305, 1898, 1906, 157, 1499
306, 1644, 1559, 137, 1417
307, 392, 1634, 1554, 1893
308, 1170, 1459, 1601, 1832
309, 1557, 1724, 1887, 1460
310, 1404, 1578, 1555, 1647
311, 72, 1643, 1395, 1733
312, 1898, 157, 1906, 161
313, 1819, 1778, 1386, 1570
314, 1649, 924, 923, 1825
315, 762, 1552, 1406, 1774
316, 1406, 1428, 1579, 1834
317, 495, 494, 1465, 98
318, 1534, 1440, 1589, 1690
319, 539, 1430, 180, 1681
320, 428, 1715, 1597, 1917
321, 1458, 1500, 326, 1599
322, 72, 1533, 71, 1737
323, 1394, 1651, 1613, 1826
324, 1498, 833, 1471, 1759
325, 1412, 1587, 1199, 1592
326, 1406, 1639, 759, 1774
327, 1643, 1767, 1610, 103
328, 1521, 1554, 1377, 1593
329, 186, 1479, 1620, 1484
330, 214, 1536, 1519, 1710
331, 1442, 1542, 931, 1850
332, 37, 1107, 1626, 1650
333, 1620, 1716, 188, 200
334, 1381, 1677, 1608, 1872
335, 1444, 1504, 51, 1505
336, 1308, 1491, 832, 1553
337, 137, 1417, 1559, 1912
338, 1567, 1378, 1408, 1791
339, 1354, 1718, 1631, 1805
340, 348, 1550, 1408, 1564
341, 1289, 1574, 970, 1776
342, 1110, 1455, 1545, 1776
343, 1394, 1621, 1613, 1651
344, 1544, 1623, 1545, 1702
345, 1261, 1135, 758, 1545
346, 1380, 1579, 1757, 1892
347, 78, 76, 1924, 1928
348, 531, 38, 37, 1650
349, 1608, 226, 1677, 1715
350, 303, 1495, 1500, 1685
351, 260, 1494, 1695, 1460
352, 1430, 1497, 1389, 1503
353, 1542, 1514, 1291, 1850
354, 1265, 894, 1486, 1515
355, 1527, 1578, 497, 1826
356, 1416, 1465, 1376, 1784
357, 1421, 85, 1605, 1586
358, 1429, 1545, 1544, 1623
359, 281, 1558, 1408, 1854
360, 670, 1611, 1522, 1509
361, 1316, 1691, 1414, 1886
362, 899, 1540, 1486, 1591
363, 595, 1573, 1405, 1735
364, 1619, 1647, 1388, 1669
365, 1674, 117, 101, 1547
366, 1355, 1720, 1419, 1771
367, 998, 1818, 1478, 1857
368, 1422, 1562, 1394, 1614
369, 1289, 970, 1334, 1776
370, 1176, 1668, 1656, 1669
371, 1588, 1598, 1397, 1663
372, 558, 1483, 1454, 1572
373, 1472, 1784, 1831, 1615
374, 584, 1585, 1893, 1906
375, 584, 157, 1906, 1499
376, 698, 1928, 1547, 80
377, 1562, 1651, 1394, 1678
378, 392, 1461, 423, 1554
379, 1377, 1408, 1390, 1550
380, 1563, 1700, 1387, 1810
381, 1109, 1930, 1919, 1281
382, 1669, 1623, 1619, 1138
383, 1644, 137, 1559, 134
384, 1472, 1615, 1372, 1784
385, 1547, 1673, 473, 1674
386, 32, 1444, 1590, 1504
387, 1682, 1840, 1324, 1446
388, 1623, 1669, 1545, 1411
389, 1273, 758, 1135, 1455
390, 718, 1662, 1731, 1427
391, 1385, 1025, 1789, 1659
392, 1109, 1285, 1281, 1919
393, 241, 1557, 1556, 242
394, 1683, 1703, 778, 1717
395, 1460, 582, 1557, 1695
396, 1181, 1448, 894, 1515
397, 1639, 1629, 1566, 42
398, 1620, 1716, 200, 1454
399, 1539, 1387, 1700, 1810
400, 262, 1603, 1410, 1617
401, 1533, 1643, 72, 73
402, 1574, 1545, 1429, 1776
403, 1406, 1428, 1834, 1774
404, 662, 1465, 495, 1543
405, 1316, 1645, 1414, 1764
406, 1565, 1589, 1440, 1690
407, 684, 1460, 605, 1724
408, 214, 1519, 1536, 1822
409, 273, 1494, 1485, 1694
410, 970, 1574, 1364, 1590
411, 30, 1504, 1905, 1450
412, 1442, 1542, 1514, 1082
413, 1411, 1668, 1193, 1669
414, 595, 1573, 620, 1655
415, 875, 830, 966, 1553
416, 584, 1906, 157, 161
417, 1742, 1812, 1457, 1840
418, 73, 1605, 1533, 1643
419, 1898, 557, 148, 1499
420, 1898, 148, 557, 153
421, 1398, 1534, 795, 1687
422, 813, 815, 1187, 1439
423, 1252, 1409, 1659, 1660
424, 885, 1923, 1697, 1007
425, 909, 1486, 1137, 1802
426, 1437, 1680, 1333, 1798
427, 1927, 918, 1649, 923
428, 1252, 1659, 1409, 1637
429, 1380, 1579, 1722, 1884
430, 622, 1646, 1464, 1787
431, 1529, 1835, 1759, 1864
432, 965, 1919, 1930, 1825
433, 1486, 907, 960, 1591
434, 1170, 1459, 1095, 1601
435, 1759, 1368, 835, 1746
436, 584, 1585, 368, 1893
437, 471, 1413, 642, 1563
438, 1144, 1445, 1477, 1874
439, 1682, 1324, 1840, 860
440, 559, 1454, 1483, 1620
441, 42, 1566, 1639, 1087
442, 1500, 1728, 298, 1833
443, 1928, 80, 78, 79
444, 237, 1464, 678, 1505
445, 801, 1440, 935, 1534
446, 978, 1445, 1308, 1553
447, 393, 423, 1550, 1554
448, 442, 1673, 1547, 1674
449, 63, 1438, 58, 1464
450, 311, 1715, 1728, 1677
451, 32, 1444, 1504, 51
452, 1484, 1570, 1386, 1681
453, 1723, 1804, 1462, 1631
454, 1484, 1530, 184, 1681
455, 508, 1424, 1556, 1625
456, 558, 559, 1454, 1483
457, 626, 1460, 1494, 1644
458, 1082, 1442, 1245, 1269
459, 1095, 1212, 1225, 1601
460, 301, 564, 326, 1599
461, 1450, 976, 1718, 1466
462, 187, 1479, 1484, 1705
463, 1153, 1462, 1449, 1777
464, 1434, 850, 1459, 1824
465, 696, 1496, 96, 1761
466, 1408, 1558, 1767, 1854
467, 1516, 1538, 1578, 1404
468, 1468, 1503, 1378, 1807
469, 579, 1605, 1598, 1852
470, 1513, 1754, 1388, 1821
471, 687, 1562, 1614, 1678
472, 241, 1557, 242, 160
473, 951, 1742, 1442, 1812
474, 235, 1438, 1505, 1755
475, 1928, 80, 79, 1547
476, 678, 1464, 643, 1575
477, 1414, 804, 1635, 1772
478, 214, 1519, 162, 1710
479, 1465, 1372, 1615, 1784
480, 530, 1610, 1420, 1766
481, 1465, 1372, 1543, 1615
482, 1828, 1230, 1231, 1525
483, 245, 1816, 1817, 1871
484, 1249, 1301, 1385, 1788
485, 214, 215, 162, 1519
486, 1394, 1404, 1527, 1826
487, 1516, 1578, 1538, 1391
488, 834, 1498, 1409, 1759
489, 1553, 933, 1896, 1491
490, 804, 1414, 1635, 1714
491, 1865, 1377, 1408, 1390
492, 885, 1923, 1007, 1314
493, 718, 1731, 1662, 720
494, 402, 1421, 1558, 1642
495, 1486, 1591, 960, 1856
496, 1392, 1461, 1634, 1554
497, 1608, 1677, 226, 209
498, 30, 1504, 1450, 606
499, 1283, 855, 1457, 1569
500, 718, 1731, 1913, 1427
501, 438, 1562, 33, 1590
502, 137, 1644, 1417, 1724
503, 850, 1459, 855, 1569
504, 1452, 1490, 1003, 1501
505, 1828, 1231, 1230, 1262
506, 635, 1582, 1479, 1705
507, 1083, 1619, 1429, 1623
508, 1507, 1098, 1034, 1172
509, 1630, 1752, 1374, 1447
510, 1034, 1098, 1507, 1032
511, 1795, 1707, 1616, 1393
512, 1404, 1380, 1555, 1838
513, 237, 235, 236, 1438
514, 1470, 1472, 1372, 1784
515, 1630, 1752, 1447, 1712
516, 1429, 1455, 1619, 1794
517, 1642, 1767, 1558, 1854
518, 1795, 1707, 1393, 1726
519, 1731, 1785, 1748, 1402
520, 582, 1557, 354, 1887
521, 1409, 1431, 1746, 1835
522, 1609, 236, 1755, 1438
523, 582, 1557, 258, 354
524, 1455, 1110, 969, 1776
525, 1597, 203, 1715, 428
526, 1474, 1380, 1722, 1884
527, 1723, 1804, 1631, 996
528, 1476, 1582, 372, 1679
529, 907, 905, 906, 1591
530, 544, 1646, 1924, 1787
531, 1421, 1526, 402, 1655
532, 1472, 1543, 1372, 1615
533, 1742, 1796, 1269, 1442
534, 1067, 1442, 950, 992
535, 951, 1742, 1812, 982
536, 1439, 1187, 1800, 1473
537, 97, 696, 96, 1761
538, 534, 1641, 1609, 1750
539, 1234, 1828, 1074, 1288
540, 575, 1530, 1483, 1692
541, 1377, 1564, 1472, 1568
542, 795, 1587, 1398, 1772
543, 346, 1625, 1556, 1744
544, 184, 183, 1484, 1681
545, 314, 1453, 1520, 1572
546, 942, 1431, 1548, 1638
547, 1563, 1600, 1387, 1700
548, 241, 1556, 1424, 1744
549, 684, 605, 160, 1724
550, 1074, 1828, 1234, 1047
551, 1767, 85, 1586, 87
552, 1492, 1696, 1641, 1410
553, 37, 1404, 1626, 1811
554, 1723, 1804, 996, 1689
555, 1193, 1668, 1303, 1669
556, 142, 140, 1583, 1912
557, 1412, 1734, 1512, 1434
558, 1559, 1642, 1610, 1652
559, 1379, 323, 1663, 1492
560, 1440, 1534, 1589, 1873
561, 1539, 1387, 1600, 1700
562, 1034, 1524, 1921, 1843
563, 456, 77, 267, 1787
564, 49, 1562, 1422, 1614
565, 56, 1450, 1636, 24
566, 1408, 1564, 1377, 1568
567, 1258, 1466, 709, 1631
568, 803, 800, 1690, 802
569, 1505, 1508, 484, 1880
570, 132, 1494, 370, 1695
571, 1469, 1668, 1656, 1725
572, 1489, 1597, 194, 1701
573, 1408, 1390, 1767, 1865
574, 1378, 1558, 1408, 1791
575, 1392, 1554, 1521, 1593
576, 33, 1335, 970, 1590
577, 1370, 1498, 1445, 1760
578, 1567, 1791, 278, 1430
579, 1041, 1525, 1478, 1909
580, 639, 1559, 1583, 514
581, 179, 1422, 1613, 1750
582, 1430, 1389, 1497, 1845
583, 399, 1551, 1543, 1915
584, 80, 78, 81, 1928
585, 1455, 1545, 1388, 1626
586, 1385, 1789, 1025, 1249
587, 92, 629, 693, 1472
588, 1082, 1442, 1269, 1514
589, 1547, 79, 101, 80
590, 1649, 1922, 1927, 924
591, 1389, 1472, 1564, 1568
592, 1547, 117, 79, 441
593, 1460, 1557, 684, 1695
594, 1395, 1420, 1763, 1733
595, 1025, 1385, 1249, 1154
596, 1378, 1397, 1612, 1468
597, 1306, 704, 1429, 1794
598, 885, 1923, 1314, 1548
599, 1524, 1317, 1507, 1056
600, 1430, 1468, 1378, 1612
601, 147, 368, 1585, 1893
602, 1258, 709, 1354, 1631
603, 1926, 258, 1695, 1557
604, 1212, 865, 1601, 1824
605, 900, 1540, 899, 1591
606, 1404, 1380, 1516, 1650
607, 1107, 1513, 1626, 1650
608, 1377, 1470, 1564, 1799
609, 1370, 1445, 1498, 1896
610, 1380, 1903, 1838, 1509
611, 887, 1693, 1528, 1491
612, 1540, 957, 1802, 909
613, 1795, 1707, 1726, 1103
614, 1414, 1739, 1398, 1772
615, 1927, 1922, 1649, 956
616, 1838, 1903, 1380, 1722
617, 1414, 1398, 1739, 1886
618, 1269, 1514, 1442, 1796
619, 1478, 1525, 1041, 1876
620, 1178, 1463, 1720, 1771
621, 601, 1413, 1580, 1869
622, 1602, 1656, 1469, 1669
623, 1436, 1597, 1480, 1715
624, 1409, 1498, 834, 1760
625, 1542, 1291, 1514, 1825
626, 1144, 1477, 1445, 1637
627, 214, 215, 1519, 1822
628, 1375, 1458, 1500, 1685
629, 884, 1548, 1477, 1638
630, 807, 1471, 806, 1721
631, 1340, 1517, 1088, 1704
632, 1441, 1574, 1364, 1653
633, 698, 1928, 80, 81
634, 1491, 1528, 1100, 1693
635, 1916, 1511, 1908, 1468
636, 1562, 1678, 1335, 1776
637, 236, 234, 238, 1609
638, 894, 1323, 1486, 1591
639, 1795, 1707, 1103, 1616
640, 1631, 1718, 1653, 1805
641, 1448, 1515, 1181, 1768
642, 1029, 1459, 982, 1812
643, 1439, 1601, 844, 1814
644, 1485, 1494, 124, 1694
645, 326, 1599, 680, 1458
646, 1378, 1503, 1408, 1586
647, 1916, 1908, 1511, 1386
648, 755, 1432, 1529, 1660
649, 1046, 1890, 1501, 1909
650, 1341, 1288, 1074, 1786
651, 813, 1734, 1439, 1800
652, 1114, 1682, 1414, 1691
653, 892, 1448, 1181, 1768
654, 1401, 1817, 1816, 1871
655, 585, 1476, 1584, 1907
656, 1417, 137, 1724, 1912
657, 1467, 1540, 1112, 1672
658, 562, 1575, 271, 1877
659, 1153, 1449, 1462, 1738
660, 772, 1815, 1622, 1839
661, 1588, 1598, 1663, 500
662, 1082, 1514, 938, 1542
663, 1481, 1625, 614, 1889
664, 1514, 1291, 1649, 1825
665, 1408, 1558, 1586, 1767
666, 314, 1520, 1453, 1867
667, 1473, 1123, 1304, 1896
668, 1687, 1440, 1241, 1719
669, 1555, 1579, 1400, 1860
670, 311, 1715, 344, 1728
671, 1408, 1550, 1377, 1564
672, 1414, 1587, 804, 1772
673, 1501, 1890, 1452, 1909
674, 1664, 1718, 1441, 1504
675, 1641, 1526, 1696, 1405
676, 1469, 1399, 1668, 1725
677, 943, 1477, 1637, 1638
678, 1759, 1368, 834, 1243
679, 393, 1554, 1550, 1799
680, 757, 1637, 1409, 1638
681, 137, 1559, 514, 1912
682, 1408, 1390, 1550, 1854
683, 532, 1488, 230, 1732
684, 1034, 1032, 1507, 1524
685, 687, 1678, 1614, 1811
686, 1178, 1720, 1463, 1777
687, 1400, 1555, 1513, 1892
688, 484, 1508, 1505, 1575
689, 1472, 1831, 1784, 1470
690, 133, 1773, 588, 1652
691, 65, 1464, 622, 1646
692, 262, 325, 1603, 1617
693, 192, 1489, 194, 1701
694, 471, 1413, 1563, 1810
695, 1184, 1366, 722, 1827
696, 1480, 1537, 1375, 1576
697, 1405, 1397, 1663, 1735
698, 445, 1561, 1564, 1692
699, 754, 1432, 1660, 1726
700, 1720, 1702, 1717, 1418
701, 72, 421, 1643, 1733
702, 1131, 1415, 1282, 1723
703, 1516, 1578, 1509, 1838
704, 1919, 1542, 964, 1825
705, 463, 1485, 1654, 1673
706, 1405, 1573, 1397, 1735
707, 1927, 1922, 1929, 924
708, 1395, 1420, 1733, 1643
709, 1392, 1461, 1817, 1634
710, 1543, 495, 680, 1458
711, 1882, 1577, 1729, 1418
712, 287, 1475, 1596, 288
713, 1409, 1529, 1431, 1835
714, 717, 1399, 1662, 1725
715, 1914, 1382, 1679, 1705
716, 720, 761, 718, 1731
717, 1847, 1718, 1664, 1504
718, 1416, 1375, 1488, 1640
719, 1340, 1203, 1517, 1704
720, 1046, 1501, 1490, 1909
721, 72, 1654, 1395, 1737
722, 58, 1438, 60, 1505
723, 850, 1434, 1569, 952
724, 1420, 1644, 133, 1773
725, 1420, 1763, 1733, 1773
726, 1567, 1378, 1791, 1430
727, 1536, 1762, 214, 1822
728, 1465, 1488, 1416, 1519
729, 706, 1155, 1156, 1428
730, 1394, 1614, 1562, 1678
731, 60, 1444, 1747, 438
732, 49, 1422, 1562, 1747
733, 674, 575, 217, 1530
734, 1324, 1446, 974, 1682
735, 1176, 1656, 1602, 1669
736, 844, 1814, 1601, 1824
737, 840, 1457, 1592, 1714
738, 833, 1498, 1721, 811
739, 1759, 1368, 1746, 834
740, 238, 328, 1410, 1609
741, 1393, 1658, 1534, 1690
742, 1447, 1599, 304, 1878
743, 137, 136, 1644, 1724
744, 601, 642, 1413, 1869
745, 1074, 1786, 1288, 1828
746, 670, 1578, 489, 1509
747, 509, 1413, 1846, 1580
748, 57, 1505, 1504, 1508
749, 1422, 1747, 49, 1859
750, 1375, 1500, 1495, 1685
751, 1355, 1717, 1419, 1720
752, 1480, 1576, 1375, 1381
753, 1929, 1922, 1927, 956
754, 695, 1847, 1505, 1880
755, 1421, 1642, 402, 1652
756, 1719, 785, 1426, 1703
757, 1405, 1397, 1598, 1663
758, 523, 1484, 1570, 1705
759, 23, 632, 24, 1450
760, 809, 1512, 1065, 1734
761, 1435, 1603, 325, 1617
762, 1639, 1629, 42, 1869
763, 1661, 1925, 1151, 1548
764, 1926, 258, 1557, 257
765, 1534, 1658, 800, 1690
766, 899, 1486, 1323, 1591
767, 1355, 782, 1133, 1419
768, 1537, 1576, 1480, 1894
769, 311, 1715, 572, 344
770, 1408, 1767, 1390, 1854
771, 1405, 1397, 1378, 1598
772, 235, 1755, 1505, 1847
773, 1608, 1677, 209, 1872
774, 585, 1584, 1844, 1907
775, 1927, 918, 923, 919
776, 1711, 1815, 1433, 1829
777, 1389, 1372, 1472, 1551
778, 1652, 1763, 1420, 1773
779, 557, 148, 1499, 1893
780, 1404, 1538, 1394, 1811
781, 1378, 1397, 1468, 1598
782, 977, 978, 1553, 1789
783, 1475, 1686, 1756, 1506
784, 1249, 1788, 1385, 1789
785, 1068, 1544, 1449, 1738
786, 346, 1556, 249, 1744
787, 1496, 1521, 96, 1761
788, 1097, 1491, 1190, 1553
789, 98, 1615, 483, 1465
790, 1487, 1748, 1662, 1785
791, 186, 1479, 1484, 187
792, 1258, 1466, 1631, 1718
793, 1622, 1839, 1399, 1868
794, 663, 1481, 108, 1594
795, 18, 1621, 1396, 1651
796, 281, 1408, 348, 1854
797, 22, 1450, 976, 1718
798, 1919, 1224, 1542, 1825
799, 1380, 1404, 1555, 1650
800, 68, 1435, 1737, 1861
801, 410, 1413, 1870, 1846
802, 765, 1552, 1428, 1730
803, 626, 136, 605, 1460
804, 1282, 1415, 1131, 1805
805, 933, 1491, 1874, 1896
806, 204, 1480, 1608, 1894
807, 1914, 1382, 1705, 1539
808, 782, 1419, 1355, 1717
809, 298, 1728, 1500, 1836
810, 814, 1832, 1601, 1734
811, 1377, 1550, 1461, 1554
812, 668, 15, 14, 1647
813, 1614, 1678, 1394, 1811
814, 1374, 1447, 1475, 1630
815, 1025, 1385, 1154, 1707
816, 275, 1485, 1674, 1694
817, 1047, 1786, 1074, 1828
818, 1109, 1919, 1239, 1285
819, 728, 726, 1403, 1782
820, 238, 328, 262, 1410
821, 1294, 1930, 1108, 1175
822, 1786, 1339, 1004, 1490
823, 1071, 1668, 1399, 1725
824, 1416, 1488, 1375, 1606
825, 1412, 1592, 1569, 1691
826, 1512, 1721, 1385, 1734
827, 184, 1530, 1484, 1620
828, 1193, 1668, 1411, 1729
829, 1258, 1631, 1354, 1718
830, 1376, 1519, 1416, 1536
831, 227, 1488, 1519, 1822
832, 826, 829, 1553, 1473
833, 361, 1700, 1580, 1846
834, 1719, 1426, 785, 1687
835, 876, 1528, 878, 1661
836, 1299, 1491, 966, 1553
837, 1155, 1428, 706, 1834
838, 539, 180, 1430, 278
839, 15, 1647, 1619, 1669
840, 726, 1403, 1713, 1748
841, 1786, 1004, 1339, 1246
842, 765, 1552, 1730, 764
843, 878, 1528, 876, 1801
844, 616, 1745, 373, 1797
845, 1543, 680, 495, 451
846, 1802, 1765, 957, 1467
847, 1509, 1531, 1571, 1891
848, 1024, 1923, 1925, 1255
849, 592, 1423, 1675, 1588
850, 1917, 1373, 1618, 1436
851, 1610, 1642, 1421, 1652
852, 1404, 1394, 1527, 1811
853, 1401, 1532, 1461, 1817
854, 1396, 1621, 18, 1664
855, 1114, 1414, 1316, 1691
856, 49, 687, 1562, 1614
857, 1552, 1579, 1428, 1699
858, 1712, 1543, 1447, 1458
859, 595, 1405, 1641, 1735
860, 1287, 1333, 1680, 1798
861, 63, 1438, 1464, 1698
862, 1434, 1512, 1412, 1803
863, 1428, 706, 1684, 1156
864, 1569, 1691, 1030, 1803
865, 1132, 1407, 1808, 1714
866, 1233, 826, 1553, 1473
867, 1434, 1385, 1512, 1803
868, 1839, 1702, 1411, 1510
869, 1430, 1503, 1389, 1567
870, 241, 1557, 160, 1424
871, 1581, 777, 968, 1683
872, 393, 392, 423, 1554
873, 227, 1488, 1822, 228
874, 386, 1453, 314, 1572
875, 1394, 1613, 1422, 1614
876, 1457, 1714, 840, 1796
877, 1653, 1364, 1163, 1574
878, 37, 38, 1107, 1650
879, 1003, 1780, 1490, 1452
880, 806, 1471, 805, 1512
881, 1380, 1474, 1451, 1566
882, 662, 1465, 1543, 1615
883, 1870, 1584, 1633, 412
884, 805, 806, 807, 1471
885, 1428, 1552, 763, 1774
886, 1377, 1472, 1470, 1831
887, 1024, 1923, 1255, 1256
888, 982, 1742, 1812, 1459
889, 273, 1485, 1849, 462
890, 1401, 1461, 1634, 1817
891, 1340, 1203, 1313, 1517
892, 72, 73, 71, 1533
893, 1490, 1501, 1452, 1909
894, 1179, 1514, 842, 1769
895, 1408, 1558, 1378, 1586
896, 833, 1498, 811, 834
897, 458, 1648, 1585, 1906
898, 952, 1434, 1569, 1803
899, 1412, 1734, 1065, 1512
900, 1436, 1728, 1500, 1833
901, 1555, 1578, 331, 1647
902, 858, 1812, 859, 1840
903, 772, 1839, 1622, 1868
904, 373, 1745, 1476, 1797
905, 887, 1693, 1491, 945
906, 1598, 1605, 1405, 1852
907, 1407, 1714, 1635, 1764
908, 1669, 1623, 1138, 1193
909, 1410, 452, 1533, 1737
910, 509, 1413, 1580, 601
911, 1539, 1600, 424, 1700
912, 1398, 1414, 1587, 1886
913, 645, 409, 500, 1598
914, 1255, 1923, 1314, 1007
915, 1567, 278, 1791, 279
916, 1003, 1780, 1452, 1337
917, 957, 1765, 1802, 958
918, 1770, 1581, 1383, 1403
919, 49, 1614, 1422, 1859
920, 1163, 1415, 1055, 1862
921, 180, 1430, 1612, 1681
922, 200, 1454, 559, 1620
923, 1420, 1559, 133, 1644
924, 1398, 1534, 1523, 1587
925, 484, 1505, 678, 1575
926, 1434, 1459, 850, 1569
927, 726, 1713, 1403, 1782
928, 639, 1559, 514, 135
929, 439, 1483, 558, 1572
930, 91, 1390, 1751, 1865
931, 947, 945, 1491, 1693
932, 1882, 1729, 1577, 1085
933, 1720, 1717, 1702, 1353
934, 1515, 1680, 1437, 1798
935, 1522, 1391, 1588, 1911
936, 523, 1484, 183, 1570
937, 32, 1444, 438, 1590
938, 1622, 1815, 1399, 1839
939, 1042, 1478, 1041, 1876
940, 1523, 1587, 1534, 1658
941, 1071, 1656, 1668, 1725
942, 510, 1642, 1559, 1652
943, 60, 1444, 438, 51
944, 1513, 1626, 1404, 1647
945, 1659, 1409, 1471, 1660
946, 1412, 1691, 1569, 1803
947, 245, 517, 1816, 1871
948, 1742, 1269, 1796, 843
949, 634, 1482, 627, 1580
950, 1178, 1325, 1720, 1777
951, 553, 1576, 1732, 552
952, 1437, 1414, 1772, 1739
953, 802, 803, 805, 1690
954, 1333, 1680, 1437, 1895
955, 1574, 1545, 1776, 1110
956, 226, 1677, 1715, 572
957, 68, 1435, 690, 1654
958, 1435, 82, 1547, 511
959, 1292, 1524, 1507, 1466
960, 754, 1432, 755, 1660
961, 1228, 1769, 1808, 1467
962, 348, 1408, 1550, 1854
963, 647, 1654, 463, 356
964, 1187, 1439, 815, 1473
965, 557, 1499, 584, 1893
966, 1405, 1378, 1397, 1573
967, 1325, 1449, 1720, 1777
968, 1582, 1679, 1382, 1705
969, 1431, 1197, 757, 1094
970, 1609, 1755, 236, 234
971, 131, 133, 1644, 1773
972, 446, 680, 1447, 1543
973, 314, 1627, 1520, 1867
974, 1153, 1068, 1325, 1449
975, 1847, 1621, 1444, 1664
976, 36, 1614, 1538, 1811
977, 1712, 1599, 1676, 1458
978, 402, 1526, 1421, 1652
979, 830, 1299, 966, 1553
980, 1639, 1189, 1327, 1549
981, 463, 1485, 1673, 1674
982, 1554, 1634, 1392, 1893
983, 299, 298, 1728, 1833
984, 626, 136, 1460, 1644
985, 1690, 1759, 1012, 1432
986, 1401, 1816, 1594, 1871
987, 1639, 1327, 1189, 711
988, 1375, 1500, 1458, 1676
989, 133, 588, 1773, 128
990, 448, 1550, 348, 1564
991, 1388, 1626, 1513, 1647
992, 448, 1550, 675, 348
993, 1435, 1698, 1410, 1737
994, 1550, 1854, 1390, 1858
995, 1531, 1600, 1474, 1903
996, 965, 1919, 1825, 1224
997, 1747, 1505, 1755, 1444
998, 753, 1595, 1463, 1793
999, 1265, 1181, 894, 1515
1000, 919, 1929, 1927, 1180
1001, 461, 684, 1557, 1695
1002, 530, 1766, 1420, 1849
1003, 32, 1444, 51, 438
1004, 409, 500, 1598, 1588
1005, 1804, 1631, 1857, 1632
1006, 1640, 1676, 1458, 1712
1007, 119, 1547, 473, 1674
1008, 956, 1927, 1180, 1672
1009, 592, 1423, 419, 1675
1010, 179, 1609, 1422, 1750
1011, 1406, 1834, 1579, 1884
1012, 1485, 124, 1674, 1694
1013, 202, 1537, 1480, 1894
1014, 1422, 165, 1613, 1621
1015, 165, 1621, 1422, 1755
1016, 351, 424, 1600, 1700
1017, 755, 1529, 1432, 1758
1018, 1005, 1431, 1197, 1918
1019, 765, 1428, 1711, 1730
1020, 1114, 1316, 1414, 1764
1021, 1241, 1440, 1534, 935
1022, 1229, 1690, 1471, 1759
1023, 361, 1700, 1846, 1914
1024, 919, 1929, 1180, 925
1025, 546, 1648, 1496, 1761
1026, 791, 1305, 1287, 1515
1027, 370, 1494, 125, 626
1028, 471, 1413, 1810, 1633
1029, 1096, 1240, 1544, 1702
1030, 402, 397, 1558, 1655
1031, 444, 1526, 595, 1655
1032, 317, 1575, 355, 1877
1033, 1815, 1711, 768, 1829
1034, 133, 1652, 1420, 1773
1035, 1001, 1490, 1339, 1786
1036, 1698, 1737, 1435, 1861
1037, 1422, 1609, 179, 1755
1038, 200, 558, 559, 1454
1039, 1060, 1524, 1292, 1466
1040, 1420, 1610, 530, 1643
1041, 1138, 1619, 744, 1623
1042, 1690, 1012, 1759, 1229
1043, 334, 1493, 1585, 1648
1044, 1869, 1563, 642, 1413
1045, 1391, 1538, 1522, 1578
1046, 1761, 96, 95, 1521
1047, 1523, 1616, 1186, 1691
1048, 1404, 1578, 1527, 1826
1049, 227, 1488, 228, 229
1050, 192, 1489, 1701, 1716
1051, 1462, 1632, 1631, 1804
1052, 1649, 924, 1927, 923
1053, 1055, 1415, 1163, 1910
1054, 625, 5, 1482, 1549
1055, 268, 1538, 1614, 1911
1056, 1399, 1815, 1469, 1839
1057, 326, 680, 1599, 564
1058, 1472, 1551, 284, 1568
1059, 137, 134, 514, 1559
1060, 1423, 1387, 1546, 1666
1061, 60, 1444, 51, 1505
1062, 1016, 1922, 1825, 955
1063, 1488, 1519, 1465, 1879
1064, 268, 1538, 36, 1614
1065, 395, 1641, 1696, 328
1066, 556, 1597, 1489, 1917
1067, 1179, 1649, 1514, 1769
1068, 492, 1679, 1582, 1705
1069, 1759, 1835, 835, 1864
1070, 1720, 1717, 1353, 786
1071, 1474, 1425, 1604, 1883
1072, 1364, 1574, 1441, 1590
1073, 806, 1471, 1512, 1721
1074, 967, 1589, 1795, 1873
1075, 1370, 1498, 1006, 1896
1076, 1546, 1423, 419, 1908
1077, 1564, 1567, 283, 1692
1078, 249, 1556, 241, 1744
1079, 1170, 1095, 984, 1601
1080, 1396, 1429, 1794, 1776
1081, 227, 1488, 229, 1519
1082, 1440, 1565, 935, 1866
1083, 1769, 1228, 1672, 1467
1084, 1676, 1833, 1436, 1500
1085, 1794, 1527, 16, 1651
1086, 1559, 1583, 514, 1912
1087, 616, 617, 1745, 1797
1088, 1111, 1112, 1540, 1672
1089, 1524, 1317, 1056, 1238
1090, 1677, 311, 342, 1728
1091, 1416, 1376, 1670, 1784
1092, 260, 1494, 1460, 274
1093, 1415, 1631, 1282, 1723
1094, 956, 1649, 1927, 1672
1095, 1421, 1558, 1642, 1767
1096, 840, 1457, 932, 1592
1097, 237, 643, 678, 1464
1098, 374, 1476, 372, 1679
1099, 1500, 1676, 1375, 1381
1100, 1199, 1412, 1188, 1658
1101, 131, 128, 133, 1773
1102, 1172, 1921, 1034, 1507
1103, 1870, 1382, 1679, 1413
1104, 254, 526, 460, 1926
1105, 1444, 1562, 438, 1590
1106, 104, 1605, 1586, 1598
1107, 594, 1641, 534, 1750
1108, 565, 1511, 1571, 1778
1109, 1325, 1449, 1068, 1720
1110, 1380, 1451, 1509, 1516
1111, 1926, 1695, 526, 460
1112, 1450, 1863, 1507, 1466
1113, 1659, 1409, 1637, 1498
1114, 1060, 1524, 1466, 1632
1115, 584, 1893, 1499, 1906
1116, 1396, 1429, 1776, 1574
1117, 693, 1472, 284, 1568
1118, 1412, 1512, 1188, 1658
1119, 643, 1575, 1464, 1787
1120, 1199, 1587, 1412, 1658
1121, 461, 1926, 1695, 1557
1122, 1362, 1409, 1252, 1660
1123, 926, 1922, 1367, 924
1124, 1287, 1680, 1515, 1798
1125, 1198, 1412, 1199, 1592
1126, 1869, 642, 1563, 53
1127, 1908, 1598, 1468, 1397
1128, 262, 1617, 1410, 1696
1129, 592, 419, 1423, 1908
1130, 182, 1570, 1681, 1778
1131, 662, 1465, 1615, 98
1132, 1398, 1587, 1414, 1772
1133, 1432, 1759, 1012, 1864
1134, 1173, 1437, 1333, 1798
1135, 1409, 1498, 1471, 1759
1136, 24, 1507, 1450, 1636
1137, 402, 1558, 396, 1642
1138, 232, 1583, 1461, 1634
1139, 1712, 1599, 1458, 1447
1140, 1083, 1306, 1429, 1619
1141, 785, 1117, 1703, 1719
1142, 1463, 1720, 1449, 1777
1143, 159, 241, 1424, 1744
1144, 1421, 1605, 85, 1643
1145, 1144, 1445, 1075, 1637
1146, 518, 1575, 431, 1787
1147, 767, 1428, 1607, 1684
1148, 1153, 1068, 1449, 1738
1149, 1269, 1245, 992, 1442
1150, 1451, 1380, 1566, 1790
1151, 951, 1742, 982, 981
1152, 1446, 842, 1769, 1808
1153, 1578, 496, 670, 489
1154, 182, 1570, 183, 1681
1155, 644, 231, 452, 1706
1156, 1225, 1212, 865, 1601
1157, 1453, 1676, 1640, 1712
1158, 376, 434, 380, 1846
1159, 1428, 1684, 767, 1711
1160, 1509, 1571, 1531, 414
1161, 1578, 670, 496, 1522
1162, 1574, 1545, 1110, 1910
1163, 76, 77, 1924, 75
1164, 804, 1587, 1414, 1592
1165, 765, 1552, 764, 763
1166, 330, 1838, 331, 1555
1167, 1002, 1501, 1697, 1918
1168, 547, 1496, 546, 1648
1169, 311, 1715, 1677, 572
1170, 448, 1550, 1564, 1799
1171, 1465, 1640, 1488, 1685
1172, 917, 1927, 918, 1672
1173, 1384, 1582, 1584, 1686
1174, 179, 1422, 165, 1613
1175, 133, 1559, 1420, 1652
1176, 934, 1442, 950, 1067
1177, 1643, 1767, 103, 85
1178, 785, 1687, 1117, 1719
1179, 540, 1572, 1454, 1701
1180, 1498, 1471, 833, 1721
1181, 804, 1592, 1414, 1714
1182, 1395, 1654, 72, 1733
1183, 303, 1500, 1495, 1836
1184, 1440, 1535, 1534, 1873
1185, 1676, 1833, 1373, 1436
1186, 1416, 1670, 1376, 1536
1187, 1694, 122, 499, 573
1188, 1839, 1702, 1019, 1411
1189, 29, 1508, 1636, 55
1190, 323, 1911, 571, 1859
1191, 389, 1483, 1572, 1561
1192, 1185, 1030, 1569, 1691
1193, 1439, 1788, 827, 1473
1194, 1426, 1703, 784, 1581
1195, 1403, 1487, 1748, 1770
1196, 546, 324, 1648, 1761
1197, 1752, 1596, 1447, 1551
1198, 1612, 1916, 1468, 1511
1199, 1372, 1543, 1472, 1551
1200, 852, 1477, 869, 1746
1201, 1910, 1545, 1110, 1096
1202, 808, 810, 1721, 1734
1203, 1338, 1478, 1804, 1028
1204, 428, 1597, 427, 1917
1205, 703, 1668, 1176, 1669
1206, 1898, 613, 485, 1536
1207, 1440, 1535, 745, 1793
1208, 828, 1407, 1714, 1635
1209, 1379, 1522, 1588, 1911
1210, 1223, 1452, 1003, 1501
1211, 832, 1308, 1144, 1491
1212, 1458, 1543, 1465, 1640
1213, 1163, 1653, 1415, 1862
1214, 1244, 1501, 1835, 1431
1215, 1421, 1586, 1558, 1767
1216, 1416, 1488, 1465, 1640
1217, 98, 483, 1615, 597
1218, 557, 368, 147, 1893
1219, 1687, 785, 1680, 1426
1220, 1498, 1800, 1006, 1896
1221, 1382, 1539, 1413, 1810
1222, 1898, 485, 613, 155
1223, 274, 260, 335, 1460
1224, 859, 1812, 1442, 1840
1225, 701, 1087, 42, 1639
1226, 1228, 1769, 1157, 842
1227, 1917, 1373, 1436, 1597
1228, 804, 1635, 819, 1714
1229, 922, 931, 1542, 1850
1230, 892, 1741, 1448, 1768
1231, 1428, 1607, 706, 1834
1232, 1532, 1417, 1871, 1401
1233, 1163, 1574, 1415, 1653
1234, 1594, 1816, 517, 1871
1235, 179, 165, 1422, 1755
1236, 194, 192, 193, 1489
1237, 1847, 1718, 1504, 1880
1238, 1450, 1508, 1504, 1880
1239, 919, 923, 1927, 924
1240, 1386, 1484, 1681, 1779
1241, 1651, 1562, 1776, 1678
1242, 1153, 1462, 1777, 1052
1243, 1567, 1378, 1430, 1503
1244, 1112, 1540, 1467, 1775
1245, 1861, 690, 1435, 70
1246, 774, 1510, 1839, 1683
1247, 1181, 892, 894, 1448
1248, 1378, 1397, 1573, 1612
1249, 894, 1448, 893, 1591
1250, 814, 1832, 1734, 1205
1251, 1747, 1755, 1505, 1438
1252, 15, 14, 1647, 1669
1253, 36, 687, 1614, 1811
1254, 24, 608, 1450, 632
1255, 1446, 1407, 1714, 1808
1256, 1623, 1729, 1418, 1882
1257, 461, 1926, 1557, 252
1258, 557, 147, 148, 1893
1259, 1401, 1583, 1417, 1912
1260, 1144, 1477, 971, 1528
1261, 1308, 832, 831, 1553
1262, 1474, 1566, 1425, 1629
1263, 1073, 1399, 1668, 1667
1264, 1396, 1621, 1562, 1651
1265, 1389, 1408, 1568, 1564
1266, 1316, 1739, 1414, 1645
1267, 445, 1564, 283, 1692
1268, 1532, 1593, 1461, 1817
1269, 698, 81, 543, 1646
1270, 887, 1693, 945, 946
1271, 75, 1646, 622, 1787
1272, 841, 1714, 839, 1446
1273, 60, 58, 61, 1438
1274, 1752, 1596, 1551, 1845
1275, 493, 1679, 1705, 1914
1276, 787, 1720, 1355, 1771
1277, 1319, 1510, 1086, 1839
1278, 142, 1583, 232, 1634
1279, 722, 1731, 1827, 1366
1280, 1493, 1648, 324, 1761
1281, 1804, 1857, 1631, 997
1282, 263, 1479, 1582, 1745
1283, 944, 1548, 1431, 1697
1284, 412, 413, 1584, 1633
1285, 1522, 1538, 1391, 1911
1286, 1711, 1730, 1433, 1815
1287, 1641, 328, 534, 1609
1288, 1398, 1687, 795, 1772
1289, 774, 1510, 1683, 776
1290, 1133, 1355, 1419, 1771
1291, 470, 1549, 1482, 1604
1292, 1354, 1631, 702, 1805
1293, 1609, 1641, 1492, 1750
1294, 1494, 1644, 1460, 1766
1295, 442, 1673, 1674, 463
1296, 663, 1424, 508, 1625
1297, 221, 1573, 595, 1735
1298, 597, 1615, 1521, 1740
1299, 1397, 1571, 1588, 1611
1300, 1392, 1461, 1554, 1593
1301, 833, 1498, 834, 1759
1302, 520, 440, 1541, 1889
1303, 1530, 1681, 1484, 1779
1304, 1430, 278, 1567, 1692
1305, 1612, 1916, 1511, 1681
1306, 497, 331, 1578, 1647
1307, 67, 68, 1737, 1861
1308, 1435, 1654, 68, 1737
1309, 1191, 1775, 1407, 1798
1310, 1611, 1663, 1397, 1735
1311, 226, 1677, 572, 490
1312, 623, 288, 1596, 1878
1313, 1763, 659, 561, 1617
1314, 520, 1541, 440, 404
1315, 858, 857, 859, 1812
1316, 1375, 1488, 1640, 1685
1317, 412, 585, 1476, 1584
1318, 1793, 1628, 1719, 1535
1319, 1482, 1580, 560, 1902
1320, 1481, 1744, 1625, 1889
1321, 1095, 1170, 982, 1459
1322, 1539, 1387, 1810, 1819
1323, 1113, 1486, 899, 1540
1324, 1417, 1594, 1401, 1912
1325, 1244, 1501, 1431, 1343
1326, 67, 1737, 1698, 1861
1327, 187, 635, 1479, 1705
1328, 328, 262, 1410, 1696
1329, 1110, 1455, 1273, 1135
1330, 1299, 1318, 1491, 1693
1331, 225, 1527, 497, 1826
1332, 828, 819, 1635, 1714
1333, 1389, 1372, 1551, 1752
1334, 1143, 710, 1020, 1607
1335, 1474, 1451, 1531, 1903
1336, 1723, 1804, 1689, 1462
1337, 841, 1714, 840, 839
1338, 765, 1552, 763, 1428
1339, 894, 895, 1323, 1591
1340, 1914, 1382, 1539, 1413
1341, 1374, 1479, 1454, 1630
1342, 1558, 1421, 1655, 1586
1343, 710, 1143, 1549, 1607
1344, 1486, 1775, 1347, 1798
1345, 855, 858, 1283, 1457
1346, 1870, 1382, 1413, 1633
1347, 1464, 1505, 58, 1575
1348, 584, 458, 1585, 1906
1349, 1185, 1569, 1283, 1682
1350, 65, 1464, 1646, 1861
1351, 1396, 1429, 1574, 1665
1352, 751, 1529, 1758, 1443
1353, 970, 1289, 1364, 1574
1354, 281, 1564, 429, 348
1355, 1417, 1401, 1594, 1871
1356, 143, 1585, 1541, 1634
1357, 1468, 1598, 645, 1807
1358, 1153, 1449, 1325, 1777
1359, 662, 1465, 98, 495
1360, 287, 1475, 288, 289
1361, 373, 372, 374, 1476
1362, 1880, 357, 695, 1847
1363, 1489, 1745, 617, 1797
1364, 1389, 1408, 1564, 1567
1365, 90, 91, 1751, 1865
1366, 628, 1390, 1736, 116
1367, 1926, 259, 1695, 258
1368, 508, 1556, 672, 1625
1369, 1606, 1762, 1627, 1416
1370, 389, 1483, 1561, 467
1371, 310, 344, 1436, 1728
1372, 588, 1763, 1652, 1773
1373, 1410, 1533, 452, 1492
1374, 57, 398, 1505, 1508
1375, 1769, 1808, 1765, 1446
1376, 1081, 1704, 1827, 1448
1377, 1805, 1664, 1718, 1441
1378, 1492, 1696, 1410, 1533
1379, 791, 1515, 1287, 1680
1380, 445, 1564, 1561, 1799
1381, 558, 439, 559, 1483
1382, 1060, 1466, 1292, 1863
1383, 1122, 1577, 1383, 1667
1384, 1409, 834, 1746, 1760
1385, 442, 1673, 463, 647
1386, 1068, 1449, 1544, 1720
1387, 438, 33, 1562, 692
1388, 1410, 1698, 231, 1737
1389, 1584, 1476, 1384, 1907
1390, 1606, 1762, 1416, 1822
1391, 712, 1482, 1251, 1549
1392, 1131, 1708, 1415, 1723
1393, 1165, 1067, 1302, 1542
1394, 387, 386, 314, 1572
1395, 1801, 880, 883, 1093
1396, 314, 1453, 240, 1867
1397, 281, 1558, 282, 1791
1398, 1712, 1543, 1458, 1640
1399, 323, 1663, 322, 1911
1400, 1179, 1157, 1649, 1769
1401, 1391, 1588, 1571, 1611
1402, 1435, 82, 511, 641
1403, 623, 1878, 1596, 1915
1404, 647, 1654, 356, 690
1405, 1505, 1755, 1444, 1847
1406, 1333, 1437, 1173, 1895
1407, 1492, 1696, 1533, 1405
1408, 1436, 1373, 1618, 1833
1409, 1480, 1608, 1576, 1381
1410, 717, 1399, 990, 1662
1411, 793, 795, 1687, 1772
1412, 1438, 1603, 1464, 1698
1413, 659, 1435, 1617, 1673
1414, 1504, 1508, 1505, 1880
1415, 1409, 1660, 1529, 1759
1416, 235, 236, 1438, 1755
1417, 1474, 1883, 1604, 1884
1418, 1470, 1709, 449, 1799
1419, 1490, 1047, 1043, 1828
1420, 1801, 883, 880, 1528
1421, 1524, 1317, 1238, 1292
1422, 1552, 1406, 1579, 1757
1423, 637, 135, 1642, 1858
1424, 361, 1580, 655, 1846
1425, 1236, 1909, 1890, 1129
1426, 1529, 1660, 1432, 1759
1427, 1391, 1522, 1588, 1611
1428, 1612, 1916, 1430, 1468
1429, 1229, 805, 1471, 1690
1430, 1447, 1372, 1752, 1551
1431, 1847, 1621, 1664, 422
1432, 1463, 1689, 748, 1792
1433, 1414, 1635, 1714, 1764
1434, 1417, 1583, 1559, 1912
1435, 946, 1528, 1693, 1801
1436, 641, 1603, 1435, 1646
1437, 1379, 1588, 1522, 1611
1438, 1114, 1414, 1682, 1764
1439, 1420, 1643, 530, 1733
1440, 981, 950, 951, 1442
1441, 1372, 1561, 1572, 1752
1442, 966, 1318, 1182, 1491
1443, 755, 1432, 754, 1758
1444, 696, 546, 1496, 1761
1445, 1099, 1672, 1467, 1769
1446, 860, 1324, 974, 1682
1447, 1370, 836, 1498, 1760
1448, 1412, 1616, 1523, 1691
1449, 1465, 1543, 1372, 1640
1450, 1606, 1762, 1822, 244
1451, 134, 137, 136, 1644
1452, 326, 303, 301, 1500
1453, 1477, 1548, 884, 1661
1454, 1041, 1478, 1066, 1909
1455, 895, 894, 893, 1591
1456, 774, 1683, 1839, 1868
1457, 1585, 1906, 1392, 1893
1458, 528, 1575, 1508, 1877
1459, 1479, 1484, 1374, 1620
1460, 29, 1508, 55, 606
1461, 1420, 1733, 530, 1849
1462, 1374, 1484, 1479, 1686
1463, 314, 1520, 387, 1572
1464, 1189, 1482, 1549, 1639
1465, 468, 1541, 1493, 1888
1466, 1606, 1762, 244, 1627
1467, 1552, 1757, 1579, 1892
1468, 203, 1597, 1480, 199
1469, 803, 806, 805, 1512
1470, 1132, 1407, 1714, 828
1471, 1343, 1501, 1431, 1697
1472, 414, 1571, 1531, 1778
1473, 904, 906, 905, 1591
1474, 1390, 1642, 1559, 1858
1475, 1493, 1634, 1392, 1817
1476, 510, 1559, 133, 1652
1477, 519, 267, 562, 1575
1478, 483, 1615, 597, 1740
1479, 1437, 1645, 1201, 1781
1480, 1265, 1486, 1347, 1798
1481, 370, 1460, 684, 1695
1482, 1201, 1437, 1781, 1782
1483, 383, 1546, 1506, 1756
1484, 1612, 1916, 1681, 1430
1485, 399, 693, 629, 1472
1486, 1099, 1649, 1672, 1769
1487, 1055, 1738, 1415, 1910
1488, 1659, 1409, 1498, 1471
1489, 1244, 1501, 1343, 1128
1490, 1904, 1890, 1909, 1452
1491, 1397, 1611, 1588, 1663
1492, 1374, 1475, 1447, 1596
1493, 110, 1481, 663, 1625
1494, 370, 1494, 626, 1460
1495, 1576, 1608, 1480, 1894
1496, 858, 1682, 1457, 1840
1497, 23, 976, 1450, 1466
1498, 1828, 1786, 1004, 1490
1499, 531, 1516, 1538, 1837
1500, 18, 1651, 1396, 1794
1501, 500, 1588, 322, 1663
1502, 365, 1810, 1563, 1841
1503, 648, 406, 515, 1900
1504, 1056, 1524, 1238, 1843
1505, 1522, 1611, 1391, 1509
1506, 519, 408, 1877, 562
1507, 239, 1867, 1830, 1537
1508, 1510, 1353, 1702, 1717
1509, 15, 1527, 1619, 1647
1510, 1382, 1582, 1476, 1679
1511, 1546, 1810, 1387, 1819
1512, 1550, 1554, 1377, 1799
1513, 1252, 1409, 757, 1637
1514, 690, 1435, 70, 1547
1515, 1641, 534, 328, 594
1516, 1191, 1407, 828, 1798
1517, 377, 375, 376, 1476
1518, 1595, 1689, 1463, 1449
1519, 1860, 1722, 576, 1838
1520, 273, 1485, 462, 275
1521, 1437, 1414, 1739, 1645
1522, 1437, 1772, 1173, 1895
1523, 1865, 1377, 1390, 1751
1524, 1389, 1430, 1692, 1845
1525, 1212, 1459, 1216, 1824
1526, 921, 1442, 931, 1850
1527, 1396, 1429, 1665, 1794
1528, 728, 1403, 1749, 1782
1529, 1461, 1390, 1377, 1593
1530, 1193, 1623, 1084, 1729
1531, 311, 457, 490, 1677
1532, 605, 1460, 136, 1724
1533, 263, 1479, 1745, 189
1534, 1840, 1290, 1769, 1514
1535, 468, 1493, 1541, 1585
1536, 1552, 1579, 1400, 1892
1537, 1500, 1728, 1436, 1381
1538, 1397, 1423, 1588, 1571
1539, 1389, 1408, 1567, 1503
1540, 1546, 419, 1423, 1666
1541, 595, 221, 620, 1573
1542, 582, 1460, 260, 1695
1543, 874, 1477, 1528, 1661
1544, 281, 1564, 348, 1408
1545, 1454, 1479, 1374, 1620
1546, 1387, 1539, 1570, 1819
1547, 1464, 1698, 1603, 1861
1548, 767, 1607, 1428, 1774
1549, 1415, 1738, 1055, 1862
1550, 1802, 1645, 1764, 1407
1551, 639, 1559, 135, 1858
1552, 1377, 1568, 1472, 1751
1553, 1001, 1490, 1786, 1501
1554, 1539, 1570, 424, 1855
1555, 203, 1597, 199, 427
1556, 1475, 1596, 288, 1878
1557, 1860, 576, 1722, 329
1558, 1138, 1193, 1303, 1669
1559, 1470, 1372, 1561, 1853
1560, 1437, 1635, 1173, 1772
1561, 446, 451, 680, 1543
1562, 1423, 1387, 1531, 1778
1563, 393, 1550, 448, 1799
1564, 200, 188, 190, 1716
1565, 511, 1547, 1435, 1673
1566, 1802, 1645, 1407, 1781
1567, 779, 1683, 1581, 1703
1568, 932, 1592, 1457, 1743
1569, 1375, 1495, 1500, 1381
1570, 1704, 1081, 1591, 1448
1571, 1194, 1097, 1190, 1553
1572, 1414, 1682, 1592, 1691
1573, 1380, 1474, 1722, 1903
1574, 1384, 1479, 1582, 1686
1575, 1029, 1459, 1812, 1212
1576, 793, 794, 795, 1772
1577, 1447, 1630, 1373, 1878
1578, 377, 1476, 376, 1870
1579, 129, 588, 665, 1901
1580, 1401, 1461, 1532, 1583
1581, 360, 424, 351, 1700
1582, 1183, 1821, 1018, 1754
1583, 1018, 1821, 1183, 1072
1584, 1794, 1527, 1651, 1455
1585, 950, 931, 951, 1442
1586, 197, 1430, 278, 1791
1587, 493, 1679, 492, 1705
1588, 186, 184, 1484, 1620
1589, 418, 614, 1625, 1889
1590, 965, 1919, 1224, 1109
1591, 706, 1156, 1268, 1684
1592, 1770, 1581, 1403, 1487
1593, 1283, 1569, 1457, 1682
1594, 1802, 1764, 1765, 1407
1595, 109, 1816, 1481, 1888
1596, 354, 1557, 508, 1887
1597, 1101, 1524, 1466, 1507
1598, 508, 1424, 663, 1887
1599, 1595, 1689, 1449, 989
1600, 1307, 1429, 1665, 1708
1601, 453, 454, 455, 1493
1602, 1151, 1359, 1548, 1697
1603, 665, 588, 1763, 1901
1604, 438, 1562, 1444, 1747
1605, 1657, 1732, 1576, 1495
1606, 18, 1396, 1664, 1665
1607, 996, 1631, 997, 1804
1608, 766, 1730, 1711, 1815
1609, 1435, 1603, 1410, 1698
1610, 1407, 1775, 1191, 1808
1611, 353, 1834, 1604, 1884
1612, 1460, 1644, 136, 1724
1613, 600, 1706, 452, 1492
1614, 651, 1666, 1451, 1675
1615, 1512, 1385, 1434, 1734
1616, 977, 829, 1473, 1553
1617, 1010, 1200, 1020, 1607
1618, 532, 479, 1495, 1732
1619, 1012, 1432, 1565, 1690
1620, 1200, 1607, 1010, 1684
1621, 1701, 1489, 1630, 1716
1622, 1472, 1615, 1377, 1751
1623, 1899, 1885, 898, 1517
1624, 1384, 1582, 1476, 1584
1625, 1545, 1619, 1388, 1669
1626, 1899, 898, 1885, 888
1627, 1825, 1920, 1922, 1367
1628, 1802, 1645, 1781, 1116
1629, 1639, 42, 1, 1869
1630, 1571, 1588, 1391, 1891
1631, 1178, 1720, 787, 1771
1632, 72, 421, 73, 1643
1633, 1544, 1623, 1418, 1882
1634, 726, 725, 1403, 1748
1635, 1214, 1068, 1544, 1720
1636, 1379, 1859, 1614, 1911
1637, 1401, 1541, 1493, 1634
1638, 304, 680, 564, 1599
1639, 1127, 1490, 1046, 1501
1640, 625, 1482, 470, 1549
1641, 1397, 1423, 1571, 1511
1642, 989, 1595, 1882, 1449
1643, 884, 942, 1548, 1638
1644, 1676, 1701, 1712, 1453
1645, 1154, 1249, 1301, 1385
1646, 456, 1924, 1787, 544
1647, 1081, 1827, 1704, 1169
1648, 874, 872, 868, 1661
1649, 721, 1662, 719, 1770
1650, 951, 1742, 981, 1442
1651, 600, 452, 1706, 644
1652, 1387, 1600, 1563, 1629
1653, 952, 1076, 1434, 1803
1654, 641, 1603, 1646, 385
1655, 1865, 1377, 1751, 1568
1656, 1132, 1407, 828, 1191
1657, 721, 1662, 720, 719
1658, 1300, 1446, 1796, 841
1659, 814, 1601, 1439, 1734
1660, 1465, 1519, 1376, 1740
1661, 1390, 1767, 1642, 1854
1662, 1446, 1796, 1682, 1840
1663, 1847, 1621, 422, 1755
1664, 1071, 1399, 717, 1725
1665, 1416, 1762, 1536, 1822
1666, 1680, 1687, 1426, 1895
1667, 1849, 274, 273, 699
1668, 1487, 1581, 1403, 1881
1669, 695, 1505, 484, 1880
1670, 1389, 1408, 1503, 1568
1671, 244, 535, 1762, 1822
1672, 228, 1822, 1732, 1488
1673, 1761, 95, 96, 97
1674, 1373, 1436, 1597, 1676
1675, 831, 978, 1308, 1553
1676, 540, 1572, 1701, 386
1677, 344, 1715, 1436, 1728
1678, 244, 219, 535, 1822
1679, 1611, 1379, 1663, 1735
1680, 1553, 1264, 966, 875
1681, 1484, 1479, 1686, 1705
1682, 1073, 1399, 1667, 990
1683, 1701, 1630, 1489, 1373
1684, 1524, 1632, 1060, 1876
1685, 1404, 1626, 1527, 1647
1686, 1461, 1550, 1390, 1858
1687, 1793, 1577, 1595, 1419
1688, 783, 1622, 1829, 1785
1689, 1701, 1676, 1373, 1597
1690, 1419, 1703, 782, 1719
1691, 220, 524, 228, 1822
1692, 1022, 1549, 1021, 1607
1693, 1340, 1088, 1517, 1885
1694, 375, 373, 374, 1476
1695, 1490, 1501, 1127, 1786
1696, 1012, 1565, 1432, 1864
1697, 1849, 273, 274, 1494
1698, 1182, 1491, 1318, 1693
1699, 494, 1685, 1465, 1879
1700, 1537, 1627, 313, 1867
1701, 349, 1855, 223, 1903
1702, 663, 1594, 1887, 1424
1703, 904, 902, 900, 1540
1704, 317, 1508, 1575, 1877
1705, 1252, 1637, 980, 1659
1706, 1653, 1632, 1862, 1162
1707, 1383, 1403, 1210, 1770
1708, 1704, 1591, 1081, 1078
1709, 468, 334, 1493, 1585
1710, 1348, 1201, 1645, 1781
1711, 1118, 1439, 1213, 1601
1712, 989, 1689, 1449, 1723
1713, 1389, 1564, 1561, 1692
1714, 1437, 1414, 1645, 1635
1715, 62, 622, 65, 1464
1716, 122, 499, 118, 1674
1717, 163, 164, 1621, 1651
1718, 947, 946, 945, 1693
1719, 878, 882, 880, 1801
1720, 1463, 1753, 748, 1793
1721, 1134, 1446, 1324, 1769
1722, 1687, 1440, 1719, 1535
1723, 1425, 1563, 1600, 1629
1724, 1581, 777, 1683, 779
1725, 1476, 1745, 1384, 1797
1726, 936, 935, 1565, 1866
1727, 349, 1855, 224, 223
1728, 1749, 1628, 1851, 1426
1729, 1380, 1516, 1509, 1838
1730, 1377, 1615, 1472, 1831
1731, 895, 899, 1323, 1591
1732, 1919, 1224, 1109, 1239
1733, 640, 508, 663, 1887
1734, 530, 415, 1610, 1766
1735, 7, 1607, 1549, 1834
1736, 1457, 1569, 1459, 1743
1737, 622, 1464, 538, 1787
1738, 1539, 360, 1914, 1700
1739, 1522, 1538, 1394, 1826
1740, 1448, 1591, 1486, 1856
1741, 1457, 1682, 1796, 1840
1742, 159, 1424, 160, 1724
1743, 499, 1674, 122, 1694
1744, 90, 1751, 1568, 1865
1745, 269, 323, 322, 1911
1746, 1925, 881, 1548, 1661
1747, 1122, 1383, 1210, 1770
1748, 759, 1566, 1087, 1639
1749, 1504, 1590, 32, 1905
1750, 913, 911, 912, 1823
1751, 1111, 1009, 1112, 1672
1752, 1382, 1413, 1633, 1810
1753, 718, 1913, 1731, 761
1754, 1133, 1419, 782, 1719
1755, 1701, 1630, 1712, 1454
1756, 1156, 1342, 1684, 1806
1757, 1404, 1555, 1578, 1838
1758, 1415, 1574, 1163, 1910
1759, 1712, 1599, 1447, 1373
1760, 176, 1611, 670, 1509
1761, 1539, 360, 1700, 424
1762, 1292, 1507, 1235, 1863
1763, 1661, 1151, 1925, 1024
1764, 159, 1624, 1424, 1724
1765, 957, 909, 958, 1802
1766, 1016, 1922, 955, 956
1767, 1445, 978, 1637, 1789
1768, 18, 1396, 1665, 1794
1769, 253, 1926, 252, 1900
1770, 382, 49, 1747, 1859
1771, 1625, 1744, 418, 1889
1772, 1375, 1416, 1606, 1867
1773, 182, 1681, 1511, 1778
1774, 1410, 1603, 1435, 1617
1775, 1547, 442, 117, 441
1776, 1896, 1800, 1789, 1498
1777, 1622, 1785, 1427, 1829
1778, 1375, 1640, 1416, 1867
1779, 1465, 1458, 1640, 1685
1780, 738, 1645, 1316, 1764
1781, 1749, 1628, 1426, 1403
1782, 1570, 1778, 182, 1855
1783, 1455, 1527, 1388, 1619
1784, 1643, 1526, 1533, 1395
1785, 1461, 1583, 1401, 1634
1786, 399, 1472, 629, 1543
1787, 1128, 1501, 1046, 1890
1788, 1375, 1685, 1495, 1732
1789, 149, 1499, 1554, 1709
1790, 1211, 1595, 742, 1577
1791, 1559, 1610, 1420, 1652
1792, 1454, 1701, 1630, 1716
1793, 257, 1926, 1900, 1557
1794, 310, 1436, 308, 1728
1795, 446, 680, 304, 1447
1796, 970, 1364, 1365, 1590
1797, 1003, 1780, 1337, 1336
1798, 1477, 1548, 869, 1746
1799, 352, 414, 1509, 1531
1800, 1118, 844, 1439, 1601
1801, 774, 1510, 776, 1319
1802, 922, 921, 931, 1850
1803, 95, 1521, 1593, 1761
1804, 458, 368, 584, 1585
1805, 1213, 1439, 816, 1601
1806, 410, 1633, 1870, 1413
1807, 1582, 1686, 1479, 1705
1808, 1544, 1353, 1720, 1702
1809, 622, 62, 538, 1464
1810, 1833, 1728, 308, 1436
1811, 592, 1423, 1588, 1908
1812, 1003, 1780, 1336, 1490
1813, 976, 22, 23, 1450
1814, 1089, 1684, 1502, 1711
1815, 1510, 1683, 778, 1717
1816, 1437, 1414, 1635, 1772
1817, 58, 1505, 398, 1575
1818, 521, 1810, 365, 1841
1819, 1163, 1055, 1054, 1862
1820, 430, 678, 643, 1575
1821, 1397, 1423, 1511, 1908
1822, 229, 1519, 1488, 1879
1823, 1561, 1572, 389, 1853
1824, 1430, 197, 1612, 1791
1825, 1000, 1008, 1007, 1697
1826, 1802, 1645, 1116, 1764
1827, 1375, 1488, 1685, 1732
1828, 1168, 1402, 890, 1768
1829, 1094, 1431, 942, 1638
1830, 1452, 1501, 1223, 1727
1831, 1108, 1920, 1294, 937
1832, 1397, 1423, 1908, 1588
1833, 833, 1229, 1471, 1759
1834, 108, 1594, 1481, 1816
1835, 1113, 1323, 899, 1486
1836, 1019, 1545, 1411, 1702
1837, 1840, 1769, 1290, 1324
1838, 1220, 1565, 1864, 1443
1839, 601, 53, 642, 1869
1840, 1776, 1794, 1651, 1455
1841, 1360, 1771, 1440, 1866
1842, 471, 1563, 365, 1810
1843, 1896, 1789, 1553, 1445
1844, 1556, 1625, 1424, 1744
1845, 1411, 1545, 1019, 1754
1846, 1429, 1619, 1545, 1623
1847, 1857, 1478, 1876, 1818
1848, 1544, 1708, 1623, 1882
1849, 1509, 1516, 1391, 1578
1850, 1776, 1651, 1794, 1396
1851, 1383, 1703, 1683, 1717
1852, 1425, 1600, 1563, 1700
1853, 204, 1480, 1894, 202
1854, 539, 184, 1530, 1681
1855, 1401, 1634, 1493, 1817
1856, 1170, 1601, 818, 1832
1857, 1041, 1042, 1066, 1478
1858, 1026, 1818, 998, 1857
1859, 1097, 945, 1190, 1491
1860, 867, 874, 1477, 1874
1861, 1138, 1084, 1193, 1623
1862, 179, 1613, 166, 1750
1863, 1653, 1163, 1364, 1106
1864, 714, 1656, 1433, 1699
1865, 1447, 1372, 1551, 1543
1866, 142, 141, 140, 1912
1867, 1386, 1681, 1570, 1778
1868, 1423, 1666, 419, 1675
1869, 1067, 1442, 992, 1245
1870, 228, 1732, 1822, 524
1871, 1657, 568, 1836, 1677
1872, 902, 1280, 903, 1540
1873, 361, 425, 1580, 1700
1874, 1664, 1718, 357, 20
1875, 1276, 1529, 1443, 1727
1876, 1548, 1431, 1121, 1746
1877, 402, 1642, 510, 1652
1878, 444, 595, 620, 1655
1879, 1721, 1734, 810, 1800
1880, 1029, 1459, 1212, 1095
1881, 310, 308, 1436, 1917
1882, 1676, 1833, 1500, 1599
1883, 324, 547, 546, 1648
1884, 296, 1599, 1500, 1833
1885, 1878, 1599, 294, 1518
1886, 157, 1499, 557, 1898
1887, 806, 1512, 808, 1721
1888, 310, 1436, 344, 1917
1889, 1926, 1557, 252, 1900
1890, 1379, 1588, 1611, 1663
1891, 169, 1522, 670, 1611
1892, 1878, 294, 1599, 293
1893, 1454, 1483, 1374, 1752
1894, 553, 1576, 552, 554
1895, 1426, 1703, 1628, 1719
1896, 1646, 82, 698, 1547
1897, 867, 874, 868, 1477
1898, 1442, 1812, 1742, 1840
1899, 778, 779, 780, 1703
1900, 1749, 1628, 1403, 727
1901, 626, 1494, 126, 1644
1902, 399, 284, 1551, 1915
1903, 301, 1500, 296, 1599
1904, 980, 1659, 1637, 1789
1905, 281, 347, 1558, 1854
1906, 952, 1076, 848, 1434
1907, 1793, 1628, 1535, 742
1908, 1074, 1293, 1341, 1786
1909, 1712, 1599, 1373, 1676
1910, 1380, 1757, 1650, 1892
1911, 276, 1576, 1537, 1894
1912, 1749, 1628, 727, 1851
1913, 1646, 698, 82, 543
1914, 523, 1570, 1539, 1705
1915, 1297, 1850, 1542, 1291
1916, 1451, 1516, 1380, 1790
1917, 1418, 1702, 1544, 1720
1918, 1283, 850, 855, 1569
1919, 1910, 1545, 1096, 1544
1920, 1482, 1639, 2, 1869
1921, 1327, 1639, 1549, 1774
1922, 547, 99, 546, 1496
1923, 1005, 1094, 1197, 1431
1924, 1436, 1715, 1480, 1381
1925, 1429, 704, 1665, 1794
1926, 313, 1627, 314, 1867
1927, 1346, 1112, 1228, 1467
1928, 465, 322, 500, 1588
1929, 1455, 969, 1110, 1273
1930, 829, 1195, 977, 1473
1931, 178, 1612, 1511, 1681
1932, 1265, 1515, 1486, 1798
1933, 852, 1477, 1746, 1760
1934, 909, 1137, 1486, 960
1935, 1424, 1624, 159, 1744
1936, 160, 159, 241, 1424
1937, 621, 1461, 392, 1634
1938, 1431, 1638, 757, 1409
1939, 24, 23, 1450, 1507
1940, 568, 1677, 1728, 1836
1941, 1896, 1789, 1445, 1498
1942, 1396, 1574, 1441, 1665
1943, 1025, 1385, 1707, 1659
1944, 1434, 1459, 1569, 1743
1945, 726, 1713, 723, 1748
1946, 1433, 1656, 714, 1725
1947, 1497, 1551, 285, 1596
1948, 996, 988, 1689, 1804
1949, 1134, 1765, 1446, 1769
1950, 874, 868, 1477, 1661
1951, 1394, 1538, 1522, 1614
1952, 1416, 1536, 1519, 1822
1953, 317, 355, 247, 1877
1954, 599, 1673, 1485, 1674
1955, 281, 347, 282, 1558
1956, 1476, 1679, 376, 1870
1957, 582, 1557, 1695, 258
1958, 102, 284, 1551, 1568
1959, 1679, 372, 492, 1582
1960, 808, 809, 810, 1734
1961, 828, 1132, 819, 1714
1962, 776, 778, 1510, 1683
1963, 782, 1703, 1419, 1717
1964, 180, 1430, 197, 1612
1965, 981, 992, 950, 1442
1966, 1587, 1592, 1412, 1691
1967, 1414, 1592, 1587, 1691
1968, 1301, 1385, 1788, 1814
1969, 1416, 1519, 1488, 1822
1970, 1441, 1574, 1396, 1590
1971, 1426, 1628, 1535, 1719
1972, 884, 1528, 1477, 1661
1973, 320, 1648, 458, 1906
1974, 1701, 1676, 1597, 1830
1975, 767, 1428, 763, 1774
1976, 1917, 1373, 1597, 1489
1977, 1504, 1505, 1847, 1880
1978, 1598, 1663, 579, 1852
1979, 850, 1434, 952, 848
1980, 849, 1459, 850, 1824
1981, 287, 1596, 1506, 1688
1982, 1382, 1584, 1582, 1686
1983, 298, 296, 1500, 1833
1984, 1314, 879, 1925, 1255
1985, 275, 1485, 463, 1674
1986, 1724, 1557, 684, 1460
1987, 1389, 1430, 1567, 1692
1988, 1926, 259, 258, 256
1989, 1794, 1527, 1455, 1619
1990, 1621, 422, 1755, 233
1991, 990, 1662, 1399, 1770
1992, 814, 1439, 813, 1734
1993, 1076, 1385, 1434, 1803
1994, 957, 1540, 1467, 1672
1995, 424, 1539, 523, 1570
1996, 1429, 1623, 1544, 1708
1997, 1540, 903, 916, 1672
1998, 1701, 1597, 201, 1830
1999, 370, 626, 605, 1460
2000, 1201, 1645, 1437, 1739
2001, 1793, 1577, 1419, 1628
2002, 289, 590, 1506, 1756
2003, 1925, 881, 1661, 879
2004, 1144, 943, 1477, 1637
2005, 1195, 827, 1788, 1473
2006, 60, 1444, 1505, 1747
2007, 311, 490, 572, 1677
2008, 671, 1744, 1624, 1889
2009, 874, 1528, 1477, 1874
2010, 1480, 1537, 202, 1830
2011, 1376, 1499, 1709, 1831
2012, 998, 1804, 997, 1857
2013, 1364, 1590, 1441, 1905
2014, 1388, 1527, 1626, 1647
2015, 1441, 1664, 1396, 1665
2016, 1643, 1767, 85, 1421
2017, 1299, 1318, 966, 1491
2018, 1444, 1562, 1396, 1621
2019, 1453, 1830, 240, 1867
2020, 1861, 690, 70, 66
2021, 1388, 1527, 1455, 1626
2022, 1144, 971, 1100, 1528
2023, 1089, 1502, 1250, 1829
2024, 1828, 1336, 1780, 1490
2025, 1829, 1899, 1427, 1560
2026, 1923, 1925, 1314, 1548
2027, 932, 1457, 1145, 1743
2028, 1430, 1530, 1845, 1916
2029, 1769, 1672, 1228, 1157
2030, 774, 1510, 1319, 1839
2031, 1231, 1058, 1525, 1843
2032, 1454, 1374, 1483, 1620
2033, 386, 1453, 1572, 1701
2034, 1414, 1691, 1587, 1886
2035, 1410, 1617, 1435, 1737
2036, 1450, 1235, 1507, 1863
2037, 1205, 1734, 1065, 1832
2038, 1094, 1005, 1363, 1431
2039, 1392, 1521, 1496, 1761
2040, 145, 1634, 1585, 143
2041, 728, 726, 725, 1403
2042, 1102, 1923, 1007, 1697
2043, 884, 1477, 943, 1638
2044, 1493, 1585, 1392, 1634
2045, 1083, 744, 1619, 1623
2046, 634, 550, 1482, 1580
2047, 1071, 1656, 1176, 1668
2048, 606, 57, 1504, 1508
2049, 250, 1624, 1541, 1889
2050, 627, 1580, 1482, 1869
2051, 903, 1540, 1280, 1672
2052, 1805, 1631, 1282, 1415
2053, 826, 825, 829, 1473
2054, 1415, 1708, 1131, 1805
2055, 964, 1542, 1165, 1302
2056, 296, 301, 298, 1500
2057, 1446, 1134, 1764, 1765
2058, 1305, 1181, 1515, 1768
2059, 797, 1635, 804, 1772
2060, 1480, 1597, 1436, 1676
2061, 1165, 1542, 964, 1919
2062, 245, 1817, 1532, 1871
2063, 1102, 1256, 1697, 1786
2064, 1412, 1734, 1434, 1832
2065, 592, 1675, 316, 1588
2066, 1144, 1100, 832, 1491
2067, 1360, 1440, 935, 1866
2068, 1013, 1565, 1443, 1671
2069, 921, 1812, 1237, 1442
2070, 1002, 1697, 944, 1918
2071, 565, 1571, 414, 1778
2072, 778, 1703, 780, 1717
2073, 1008, 1697, 1000, 1786
2074, 235, 234, 236, 1755
2075, 1426, 1383, 1628, 1703
2076, 1241, 795, 1534, 1687
2077, 376, 375, 374, 1476
2078, 1701, 201, 1597, 198
2079, 1211, 742, 1595, 1278
2080, 624, 402, 510, 1652
2081, 1554, 1709, 1499, 1831
2082, 1002, 1501, 1001, 1697
2083, 1451, 40, 44, 1790
2084, 154, 1670, 1536, 1709
2085, 1391, 1588, 1675, 1891
2086, 1396, 1562, 1444, 1590
2087, 425, 560, 1580, 1902
2088, 116, 596, 1532, 1736
2089, 1221, 1012, 1759, 1864
2090, 652, 151, 1561, 1853
2091, 30, 1504, 606, 31
2092, 1548, 1121, 1431, 1152
2093, 326, 1458, 495, 1685
2094, 1003, 1223, 1337, 1452
2095, 1684, 1711, 1428, 1806
2096, 1474, 1600, 350, 1903
2097, 521, 1810, 1841, 1546
2098, 755, 1529, 1362, 1660
2099, 990, 1399, 1667, 1770
2100, 1544, 1353, 1702, 1240
2101, 325, 659, 1435, 1617
2102, 1233, 823, 826, 1473
2103, 1253, 776, 778, 1510
2104, 498, 497, 1527, 1647
2105, 1544, 1720, 1449, 1882
2106, 511, 641, 659, 1435
2107, 754, 1660, 756, 1726
2108, 1029, 1459, 1095, 982
2109, 1121, 1746, 1431, 1835
2110, 1468, 1511, 1397, 1612
2111, 1153, 1462, 1052, 1053
2112, 1541, 1585, 1493, 1634
2113, 1430, 1845, 1497, 1916
2114, 1372, 1572, 1561, 1853
2115, 1427, 718, 1725, 1820
2116, 925, 1929, 1922, 924
2117, 1435, 82, 641, 1646
2118, 177, 1511, 1612, 1875
2119, 1186, 1030, 1691, 1803
2120, 1524, 1317, 1292, 1507
2121, 1682, 858, 860, 1840
2122, 1378, 1430, 1612, 1791
2123, 822, 1213, 1118, 1439
2124, 1388, 1469, 1602, 1821
2125, 887, 1693, 946, 1528
2126, 1463, 1595, 1449, 1720
2127, 1447, 1372, 1543, 1712
2128, 323, 571, 1911, 269
2129, 1472, 1389, 1551, 1568
2130, 880, 1528, 883, 1661
2131, 1925, 881, 879, 1314
2132, 1928, 1646, 1547, 76
2133, 1657, 568, 1677, 343
2134, 1531, 1387, 1600, 1855
2135, 1076, 848, 1434, 1814
2136, 10, 1227, 1579, 1699
2137, 1577, 1595, 1418, 1882
2138, 1188, 1065, 1512, 1412
2139, 1510, 1353, 1717, 1253
2140, 1423, 1451, 1387, 1666
2141, 1423, 1387, 1451, 1531
2142, 366, 1629, 1451, 1666
2143, 1427, 1725, 718, 1662
2144, 1404, 1555, 1513, 1647
2145, 1686, 1779, 1484, 1819
2146, 1225, 984, 1095, 1601
2147, 1436, 1480, 1676, 1381
2148, 921, 1812, 1090, 1237
2149, 1373, 1597, 1489, 1701
2150, 704, 1083, 1306, 1429
2151, 1311, 1186, 1616, 1803
2152, 272, 1494, 1694, 1695
2153, 1868, 1683, 968, 775
2154, 1476, 376, 1679, 374
2155, 1435, 82, 1646, 1547
2156, 187, 1484, 185, 1705
2157, 1506, 1779, 1686, 1819
2158, 1629, 1666, 366, 1841
2159, 1596, 1688, 1779, 1506
2160, 1388, 1619, 1527, 1647
2161, 186, 185, 187, 1484
2162, 1522, 1379, 1614, 1911
2163, 1402, 1741, 890, 1768
2164, 126, 1644, 1494, 1773
2165, 1212, 1216, 865, 1824
2166, 1261, 758, 1183, 1626
2167, 1447, 1373, 1630, 1712
2168, 1562, 438, 318, 1747
2169, 1469, 1725, 1656, 1815
2170, 477, 1728, 298, 1836
2171, 1646, 1435, 70, 1861
2172, 180, 1612, 178, 1681
2173, 352, 1531, 1509, 1903
2174, 174, 1612, 1573, 1875
2175, 115, 663, 108, 1594
2176, 1418, 1720, 1544, 1882
2177, 1377, 1615, 1521, 1751
2178, 944, 1697, 1431, 1918
2179, 1377, 1521, 1615, 1831
2180, 994, 1729, 1623, 1882
2181, 1076, 1434, 1385, 1814
2182, 933, 1874, 1091, 1896
2183, 893, 1591, 1448, 1704
2184, 1567, 1378, 1503, 1408
2185, 1469, 1656, 1400, 1815
2186, 1868, 968, 1683, 1487
2187, 1376, 1615, 1465, 1740
2188, 1201, 1749, 1437, 1782
2189, 410, 1413, 601, 642
2190, 540, 1454, 200, 1716
2191, 1924, 78, 81, 683
2192, 885, 1548, 944, 1697
2193, 518, 267, 1575, 1787
2194, 1250, 1560, 1502, 1823
2195, 1489, 1745, 1630, 1716
2196, 267, 271, 562, 1575
2197, 308, 1436, 1618, 1833
2198, 989, 1689, 1723, 987
2199, 1815, 768, 1711, 766
2200, 1602, 1647, 14, 1669
2201, 1413, 1700, 1563, 1810
2202, 1829, 1899, 1560, 853
2203, 427, 1597, 556, 1917
2204, 1416, 1627, 1520, 1762
2205, 1378, 1558, 1655, 1586
2206, 1426, 1383, 1703, 1581
2207, 1377, 1390, 1461, 1550
2208, 62, 65, 63, 1464
2209, 402, 669, 1526, 1652
2210, 1630, 1745, 1489, 1384
2211, 268, 36, 687, 1614
2212, 1522, 1614, 1538, 1911
2213, 967, 1440, 747, 1589
2214, 1373, 1518, 1489, 1618
2215, 1579, 1838, 1722, 1860
2216, 1226, 1116, 1298, 1802
2217, 134, 133, 1559, 1644
2218, 1269, 1442, 1358, 1742
2219, 545, 1438, 1698, 1706
2220, 1380, 1579, 1555, 1838
2221, 629, 1543, 1472, 1615
2222, 1846, 658, 361, 1914
2223, 869, 1548, 1121, 1746
2224, 840, 1145, 932, 1457
2225, 636, 1497, 1468, 1503
2226, 1846, 361, 658, 655
2227, 217, 1530, 184, 1620
2228, 1651, 1776, 1562, 1396
2229, 511, 1435, 659, 1673
2230, 344, 1715, 646, 1917
2231, 1399, 1839, 1683, 1868
2232, 124, 1494, 125, 1694
2233, 1455, 1527, 1394, 1811
2234, 261, 236, 238, 1603
2235, 1216, 856, 849, 1459
2236, 1476, 1582, 1382, 1584
2237, 1520, 1627, 432, 1762
2238, 1121, 1431, 1244, 1835
2239, 324, 1493, 455, 1648
2240, 663, 1887, 1594, 115
2241, 978, 1075, 1445, 1637
2242, 900, 899, 897, 1591
2243, 287, 1475, 289, 1506
2244, 801, 1534, 800, 1690
2245, 111, 1481, 694, 1625
2246, 877, 878, 1661, 876
2247, 1431, 1343, 1697, 1152
2248, 683, 81, 1924, 544
2249, 593, 1624, 671, 1744
2250, 1156, 1155, 1227, 1428
2251, 1145, 1457, 840, 1796
2252, 1828, 1004, 1786, 1288
2253, 1108, 1920, 965, 1930
2254, 919, 1929, 925, 924
2255, 547, 333, 1496, 1648
2256, 1555, 1838, 1579, 1860
2257, 1, 2, 1639, 1869
2258, 471, 365, 491, 1810
2259, 936, 935, 801, 1565
2260, 544, 1924, 1646, 81
2261, 833, 1229, 805, 1471
2262, 1526, 1605, 1421, 1643
2263, 463, 1485, 74, 1654
2264, 1438, 1706, 545, 1747
2265, 506, 1797, 1917, 1489
2266, 1861, 690, 66, 68
2267, 718, 716, 1725, 1820
2268, 1321, 1440, 1360, 1771
2269, 1108, 1920, 937, 965
2270, 1405, 1533, 1526, 1696
2271, 1423, 1588, 1571, 1891
2272, 1434, 1459, 1743, 1832
2273, 1405, 1492, 1641, 1663
2274, 1434, 1734, 1601, 1832
2275, 1779, 1845, 1530, 1916
2276, 721, 1662, 1770, 1748
2277, 1798, 1347, 1191, 1775
2278, 60, 1438, 545, 1747
2279, 496, 1578, 1522, 1826
2280, 817, 1213, 822, 1439
2281, 1391, 1578, 1522, 1509
2282, 1360, 1321, 935, 1440
2283, 1407, 1635, 828, 1798
2284, 1569, 1592, 1457, 1682
2285, 1215, 1269, 1358, 1742
2286, 164, 1651, 130, 1826
2287, 57, 51, 1504, 1505
2288, 662, 1543, 629, 1615
2289, 1308, 1075, 1144, 1445
2290, 1794, 1527, 1619, 16
2291, 1179, 842, 1157, 1769
2292, 1228, 1769, 842, 1808
2293, 1114, 1185, 1682, 1691
2294, 1457, 1682, 1714, 1796
2295, 969, 1455, 1776, 1678
2296, 1376, 1784, 1615, 1831
2297, 9, 1579, 1834, 1884
2298, 1322, 718, 761, 1913
2299, 1483, 1572, 1561, 1752
2300, 300, 1506, 383, 1546
2301, 1432, 1589, 754, 1758
2302, 1168, 890, 1402, 1899
2303, 23, 1450, 1507, 1466
2304, 1545, 1623, 1411, 1702
2305, 1581, 1683, 1383, 1703
2306, 1469, 1815, 1400, 1821
2307, 1532, 1817, 1401, 1871
2308, 1669, 1176, 13, 1602
2309, 772, 774, 1839, 1868
2310, 149, 150, 1499, 1709
2311, 1411, 1669, 1545, 1754
2312, 1443, 1864, 1220, 1890
2313, 1433, 1725, 714, 1820
2314, 204, 1480, 202, 203
2315, 1389, 1483, 1561, 1752
2316, 1046, 1129, 1890, 1909
2317, 370, 684, 461, 1695
2318, 1179, 938, 1514, 1649
2319, 1047, 1059, 1074, 1786
2320, 1388, 1545, 1455, 1619
2321, 1545, 1669, 1388, 1754
2322, 473, 1673, 599, 1674
2323, 239, 1867, 1537, 313
2324, 1712, 1543, 1640, 1372
2325, 1170, 1206, 1459, 1832
2326, 702, 1282, 1131, 1805
2327, 383, 1810, 1546, 1756
2328, 1928, 1646, 76, 1924
2329, 1433, 1400, 1815, 1730
2330, 1346, 1467, 1228, 1808
2331, 163, 1621, 18, 1651
2332, 1397, 1511, 1468, 1908
2333, 1216, 856, 1459, 1812
2334, 1646, 70, 1435, 1547
2335, 1828, 1336, 1490, 1004
2336, 389, 1483, 467, 439
2337, 1491, 1528, 887, 1874
2338, 1418, 1577, 1419, 1595
2339, 258, 582, 260, 1695
2340, 1646, 76, 1924, 75
2341, 843, 1145, 840, 1796
2342, 192, 194, 198, 1701
2343, 110, 694, 1481, 1625
2344, 93, 1532, 1593, 1390
2345, 867, 1477, 852, 1760
2346, 1829, 1899, 783, 1785
2347, 1390, 1532, 1461, 1583
2348, 1657, 568, 343, 306
2349, 853, 783, 770, 1829
2350, 1539, 424, 1600, 1855
2351, 1793, 1577, 1628, 742
2352, 1584, 1384, 1844, 1907
2353, 1085, 1211, 1577, 1882
2354, 1489, 1518, 1384, 1797
2355, 1221, 1012, 1229, 1759
2356, 59, 1549, 1604, 1834
2357, 276, 1537, 1576, 1606
2358, 1444, 1621, 1396, 1664
2359, 1349, 1013, 1232, 1671
2360, 1390, 1610, 628, 1736
2361, 1392, 1461, 1593, 1817
2362, 471, 491, 1633, 1810
2363, 103, 87, 85, 1767
2364, 575, 539, 1530, 1692
2365, 1520, 432, 1670, 1762
2366, 1389, 1567, 1564, 1692
2367, 934, 1442, 1067, 1542
2368, 65, 622, 75, 1646
2369, 1492, 1696, 1405, 1641
2370, 1289, 1110, 1574, 1776
2371, 709, 1631, 1466, 1857
2372, 927, 1930, 1367, 1175
2373, 1805, 1718, 1664, 20
2374, 356, 68, 690, 1654
2375, 808, 806, 809, 1512
2376, 1676, 1833, 1599, 1373
2377, 1444, 1441, 1504, 1664
2378, 197, 278, 279, 1791
2379, 1469, 1754, 975, 1821
2380, 870, 1477, 1661, 1548
2381, 1452, 1478, 1338, 1780
2382, 1216, 1459, 1212, 1812
2383, 1299, 1148, 1318, 1693
2384, 798, 800, 1534, 1658
2385, 1701, 1676, 1830, 1453
2386, 519, 518, 267, 1575
2387, 814, 816, 1439, 1601
2388, 1071, 715, 1656, 1725
2389, 1122, 1667, 1383, 1770
2390, 1452, 1338, 1478, 1809
2391, 1814, 1788, 827, 1439
2392, 1413, 1539, 1700, 1810
2393, 1465, 483, 494, 1879
2394, 1555, 1602, 1513, 1647
2395, 445, 1561, 151, 1799
2396, 1416, 1520, 1670, 1762
2397, 1488, 1685, 532, 1879
2398, 696, 546, 99, 1496
2399, 1128, 1127, 1046, 1501
2400, 1358, 992, 981, 1442
2401, 1382, 1686, 1582, 1705
2402, 1559, 1583, 1390, 1858
2403, 96, 597, 1521, 1740
2404, 714, 1699, 1433, 1806
2405, 813, 814, 815, 1439
2406, 974, 1446, 1134, 1764
2407, 1469, 1388, 1754, 1821
2408, 1338, 1478, 1028, 1780
2409, 90, 693, 284, 1568
2410, 985, 821, 1233, 1473
2411, 479, 532, 230, 1732
2412, 1494, 1766, 274, 1849
2413, 1227, 9, 1579, 1834
2414, 1300, 1514, 1269, 1796
2415, 1606, 524, 1822, 1732
2416, 607, 1453, 386, 1701
2417, 385, 1464, 537, 1603
2418, 1519, 1740, 1465, 1879
2419, 851, 1445, 1370, 1896
2420, 1559, 1583, 1417, 1736
2421, 1390, 1583, 1559, 1736
2422, 1375, 1640, 1458, 1685
2423, 1538, 1614, 1394, 1811
2424, 955, 956, 1922, 929
2425, 271, 1575, 528, 1877
2426, 1313, 1517, 898, 1885
2427, 1134, 974, 1324, 1446
2428, 157, 557, 153, 1898
2429, 1497, 1845, 1779, 1916
2430, 851, 1874, 1445, 1896
2431, 1812, 1345, 859, 1442
2432, 1471, 1512, 1385, 1707
2433, 1639, 1, 42, 701
2434, 759, 1286, 1087, 1566
2435, 1614, 1859, 571, 1911
2436, 736, 1186, 1523, 1616
2437, 1112, 1467, 1346, 1775
2438, 1812, 859, 1345, 857
2439, 1526, 1643, 1421, 1652
2440, 1372, 1520, 1453, 1572
2441, 1388, 1602, 1513, 1821
2442, 978, 1075, 1308, 1445
2443, 607, 1453, 1701, 1830
2444, 1395, 1643, 1526, 1652
2445, 374, 372, 384, 1679
2446, 1491, 1445, 1874, 1896
2447, 1604, 1834, 1406, 1884
2448, 151, 1470, 449, 1799
2449, 1413, 1846, 1700, 1914
2450, 1386, 1570, 1484, 1819
2451, 1631, 1863, 1632, 1653
2452, 191, 617, 193, 1489
2453, 1917, 1373, 1489, 1618
2454, 1771, 1866, 1178, 1463
2455, 361, 425, 655, 1580
2456, 1606, 524, 1732, 362
2457, 491, 1756, 1633, 1810
2458, 1163, 1054, 1653, 1862
2459, 165, 164, 1613, 1621
2460, 1765, 1808, 1769, 1467
2461, 149, 1554, 1499, 1893
2462, 203, 1597, 427, 428
2463, 1362, 1409, 1660, 1529
2464, 1447, 1373, 1599, 1878
2465, 1532, 1417, 1401, 1583
2466, 203, 1608, 1480, 1715
2467, 1509, 488, 487, 555
2468, 1354, 20, 1718, 1805
2469, 177, 175, 1511, 1875
2470, 456, 1924, 544, 683
2471, 176, 1571, 1611, 1509
2472, 737, 1626, 1455, 1811
2473, 817, 816, 1213, 1439
2474, 1828, 1336, 1004, 1230
2475, 1513, 1555, 1400, 1602
2476, 827, 1439, 844, 1814
2477, 1376, 1465, 1615, 1784
2478, 1178, 1671, 1463, 1866
2479, 1137, 1486, 960, 1856
2480, 1404, 1527, 1626, 1811
2481, 262, 261, 238, 1603
2482, 1657, 568, 306, 1836
2483, 1386, 1506, 1546, 1819
2484, 848, 1434, 1814, 1824
2485, 1664, 1665, 1441, 1805
2486, 1531, 1855, 1600, 1903
2487, 1491, 1553, 1445, 1896
2488, 966, 1182, 1264, 1491
2489, 1241, 799, 935, 1534
2490, 1527, 16, 15, 1619
2491, 385, 1464, 1603, 1646
2492, 151, 1561, 1470, 1799
2493, 844, 845, 1814, 1824
2494, 1675, 1588, 1391, 1837
2495, 305, 303, 1495, 1836
2496, 1015, 1196, 1456, 1904
2497, 208, 1608, 209, 1872
2498, 111, 614, 1481, 1625
2499, 1513, 1555, 1404, 1650
2500, 980, 1637, 978, 1789
2501, 986, 1689, 1456, 1792
2502, 798, 799, 795, 1534
2503, 642, 53, 471, 1563
2504, 795, 799, 1241, 1534
2505, 422, 1755, 235, 1847
2506, 1160, 1560, 1517, 1885
2507, 349, 1855, 1903, 1600
2508, 621, 232, 1461, 1634
2509, 1451, 1566, 1474, 1629
2510, 239, 1867, 313, 240
2511, 1733, 1763, 1485, 1773
2512, 1770, 1581, 1487, 1683
2513, 1517, 1560, 1160, 1731
2514, 1444, 1441, 1664, 1396
2515, 25, 1507, 24, 1636
2516, 1071, 990, 717, 1399
2517, 467, 575, 674, 1483
2518, 1375, 1537, 1480, 1830
2519, 402, 397, 396, 1558
2520, 285, 1596, 1551, 1915
2521, 1557, 1887, 1724, 1424
2522, 467, 1483, 1561, 1692
2523, 957, 908, 1540, 1672
2524, 273, 1485, 275, 1694
2525, 109, 107, 1816, 1888
2526, 880, 882, 1093, 1801
2527, 429, 283, 1564, 1567
2528, 1502, 1684, 1342, 1806
2529, 767, 1207, 1607, 1774
2530, 344, 1436, 1715, 1917
2531, 1833, 308, 1728, 299
2532, 366, 1451, 651, 1666
2533, 1473, 1304, 1123, 820
2534, 1465, 494, 483, 98
2535, 562, 271, 591, 1877
2536, 651, 1451, 44, 1675
2537, 619, 1705, 1539, 1914
2538, 1156, 1342, 1268, 1684
2539, 1388, 1513, 1602, 1647
2540, 1152, 1431, 1548, 1697
2541, 965, 937, 955, 1920
2542, 105, 1816, 1493, 1817
2543, 501, 1870, 1476, 377
2544, 1287, 1173, 1333, 1798
2545, 119, 80, 1547, 101
2546, 855, 857, 858, 1812
2547, 308, 1618, 1436, 1917
2548, 1514, 1649, 1291, 1769
2549, 1373, 1630, 1518, 1878
2550, 641, 1603, 385, 325
2551, 402, 1526, 444, 1655
2552, 884, 1528, 1661, 883
2553, 1451, 1423, 1531, 1891
2554, 316, 592, 419, 1675
2555, 1903, 589, 350, 1474
2556, 11, 1699, 1579, 1860
2557, 1455, 1626, 1527, 1811
2558, 42, 1629, 1563, 1869
2559, 1500, 1728, 1381, 1836
2560, 677, 1571, 1511, 1875
2561, 1763, 659, 1617, 1673
2562, 809, 1188, 1065, 1512
2563, 1195, 977, 1473, 1788
2564, 1471, 1660, 1409, 1759
2565, 1415, 1631, 1653, 1805
2566, 183, 523, 185, 1484
2567, 523, 185, 1484, 1705
2568, 1399, 1668, 1510, 1839
2569, 108, 663, 110, 1481
2570, 1442, 1742, 1796, 1840
2571, 63, 1464, 65, 1861
2572, 1489, 1618, 1518, 1797
2573, 778, 1253, 1510, 1717
2574, 545, 1438, 61, 1698
2575, 1015, 1456, 1671, 1904
2576, 1464, 1575, 538, 1787
2577, 1532, 1417, 1583, 1736
2578, 310, 661, 308, 1917
2579, 1451, 1629, 1387, 1666
2580, 600, 1706, 1492, 1859
2581, 1532, 1417, 1736, 1871
2582, 1540, 916, 903, 901
2583, 333, 319, 1496, 1906
2584, 1481, 1594, 1424, 1624
2585, 1300, 842, 1179, 1514
2586, 250, 671, 1624, 1889
2587, 1386, 1506, 1688, 1546
2588, 1372, 1453, 1520, 1640
2589, 391, 1556, 346, 1625
2590, 1444, 1441, 1396, 1590
2591, 1390, 1583, 1461, 1858
2592, 1024, 879, 1925, 1661
2593, 616, 371, 373, 1745
2594, 1168, 1402, 1768, 1785
2595, 1001, 1490, 1501, 1003
2596, 593, 250, 671, 1624
2597, 122, 1674, 120, 1694
2598, 129, 1652, 588, 1901
2599, 40, 1451, 1566, 1790
2600, 1418, 1595, 1419, 1720
2601, 1903, 350, 589, 349
2602, 754, 755, 756, 1660
2603, 29, 1450, 1507, 1636
2604, 718, 1322, 1820, 1913
2605, 58, 62, 63, 1464
2606, 1381, 1715, 1677, 1728
2607, 1489, 192, 191, 1716
2608, 1816, 1624, 1594, 1481
2609, 1850, 1345, 1442, 859
2610, 1399, 1667, 1510, 1668
2611, 1013, 1443, 1232, 1671
2612, 461, 1926, 252, 460
2613, 1534, 1795, 1589, 1873
2614, 901, 900, 902, 1540
2615, 783, 1622, 1785, 771
2616, 1027, 1478, 998, 1818
2617, 1652, 1763, 588, 1901
2618, 1290, 1514, 1291, 1769
2619, 1258, 1242, 709, 1466
2620, 1881, 1785, 1248, 1768
2621, 1589, 754, 1164, 1726
2622, 1158, 1704, 1517, 1827
2623, 1504, 1505, 1444, 1847
2624, 619, 493, 1705, 1914
2625, 508, 507, 672, 1556
2626, 1128, 1343, 1127, 1501
2627, 538, 1464, 58, 1575
2628, 313, 314, 240, 1867
2629, 817, 815, 816, 1439
2630, 1201, 1739, 1437, 1749
2631, 1802, 1764, 1116, 1298
2632, 1385, 1734, 1721, 1800
2633, 1814, 827, 1788, 847
2634, 1657, 603, 479, 1495
2635, 1021, 1549, 7, 1607
2636, 1444, 1422, 1621, 1755
2637, 186, 1479, 187, 188
2638, 1375, 1480, 1676, 1830
2639, 1291, 1542, 1297, 1825
2640, 387, 1572, 1520, 1853
2641, 1923, 1256, 1102, 1255
2642, 907, 906, 960, 1591
2643, 1297, 1850, 1291, 864
2644, 554, 1657, 1576, 1872
2645, 1375, 1576, 1537, 1606
2646, 1451, 44, 1516, 1790
2647, 16, 654, 130, 1527
2648, 172, 1735, 1611, 1875
2649, 1543, 1551, 1447, 1915
2650, 1657, 479, 603, 437
2651, 658, 1846, 1679, 1914
2652, 1083, 1623, 1429, 1708
2653, 1908, 1598, 1397, 1588
2654, 705, 1656, 1699, 1860
2655, 1170, 984, 818, 1601
2656, 1024, 1923, 1256, 1151
2657, 371, 616, 617, 1745
2658, 194, 1489, 556, 1597
2659, 194, 1597, 198, 1701
2660, 1392, 1593, 1521, 1761
2661, 1307, 1429, 1708, 1083
2662, 832, 1299, 1491, 1693
2663, 783, 1622, 771, 770
2664, 1252, 991, 980, 1637
2665, 1493, 1816, 107, 1888
2666, 1429, 1455, 1776, 1545
2667, 389, 1483, 439, 1572
2668, 870, 1477, 1548, 869
2669, 1430, 1497, 1468, 1916
2670, 124, 126, 1494, 1773
2671, 1433, 1400, 1730, 1699
2672, 1692, 467, 445, 1561
2673, 804, 1199, 1587, 1592
2674, 1752, 1596, 1845, 1374
2675, 1595, 1720, 1463, 1771
2676, 34, 1335, 1562, 1678
2677, 1825, 1922, 1920, 955
2678, 312, 1485, 599, 1673
2679, 893, 1704, 1448, 1741
2680, 1088, 1080, 1340, 1704
2681, 1463, 1671, 1178, 1777
2682, 1838, 1509, 555, 1578
2683, 1692, 445, 467, 283
2684, 799, 800, 801, 1534
2685, 1540, 1467, 1775, 1802
2686, 736, 1616, 1523, 1795
2687, 1870, 1584, 412, 1476
2688, 1053, 1738, 1462, 1862
2689, 718, 1820, 1427, 1913
2690, 1446, 1714, 1682, 1796
2691, 852, 868, 869, 1477
2692, 1185, 1030, 1283, 1569
2693, 1384, 1797, 1518, 1907
2694, 184, 181, 183, 1681
2695, 424, 1570, 222, 1855
2696, 1802, 1764, 1298, 1765
2697, 1110, 1455, 1135, 1545
2698, 1102, 1256, 1923, 1697
2699, 1390, 1377, 1593, 1751
2700, 753, 1463, 748, 1793
2701, 1442, 1796, 1514, 1840
2702, 1510, 1411, 1668, 1729
2703, 159, 598, 241, 1744
2704, 289, 1584, 1475, 1844
2705, 226, 1677, 490, 209
2706, 339, 1495, 603, 1657
2707, 1816, 1624, 1481, 1541
2708, 1436, 1676, 1500, 1381
2709, 182, 1511, 565, 1778
2710, 1156, 1428, 1227, 1806
2711, 911, 1823, 913, 1885
2712, 1334, 970, 1335, 1776
2713, 325, 341, 659, 1617
2714, 286, 1497, 1596, 1688
2715, 262, 394, 1617, 1696
2716, 563, 1537, 202, 1894
2717, 336, 1766, 335, 1842
2718, 1588, 1663, 1379, 1911
2719, 896, 1591, 893, 1704
2720, 1662, 1785, 1731, 1427
2721, 1500, 1599, 1458, 1676
2722, 1443, 1671, 1565, 1753
2723, 132, 1494, 1695, 1694
2724, 957, 1467, 1099, 1672
2725, 416, 1766, 1842, 1871
2726, 1374, 1484, 1686, 1779
2727, 1413, 1563, 1700, 1869
2728, 1782, 1768, 1515, 1713
2729, 1393, 1432, 1726, 1471
2730, 1393, 1432, 1471, 1690
2731, 1010, 1607, 1011, 1684
2732, 223, 182, 1778, 1855
2733, 1502, 1711, 1684, 1806
2734, 166, 1613, 168, 1750
2735, 1201, 1348, 959, 1781
2736, 1437, 1680, 1515, 1782
2737, 1510, 1668, 1667, 1729
2738, 362, 276, 1576, 1606
2739, 627, 1482, 2, 1869
2740, 223, 1778, 1531, 1855
2741, 1724, 684, 1557, 160
2742, 810, 1734, 813, 1800
2743, 1183, 1513, 1312, 1821
2744, 1378, 1598, 1468, 1807
2745, 374, 688, 434, 1679
2746, 1151, 1923, 1256, 1697
2747, 1374, 1479, 1630, 1686
2748, 355, 518, 519, 1575
2749, 1850, 1345, 859, 863
2750, 1451, 40, 1629, 366
2751, 876, 1330, 1528, 1661
2752, 693, 399, 284, 1472
2753, 1451, 1516, 44, 1675
2754, 1201, 1781, 959, 1782
2755, 1412, 1734, 1832, 1065
2756, 1041, 1828, 1525, 1909
2757, 662, 629, 98, 1615
2758, 727, 1383, 1628, 1403
2759, 414, 1531, 223, 1778
2760, 1779, 1475, 1506, 1686
2761, 96, 1521, 1496, 1740
2762, 59, 1604, 353, 1834
2763, 124, 599, 1485, 1674
2764, 1034, 1921, 1036, 1843
2765, 1220, 1565, 1443, 1013
2766, 362, 1606, 1576, 1732
2767, 1617, 1673, 1654, 1763
2768, 20, 19, 1664, 1805
2769, 25, 24, 1507, 707
2770, 557, 157, 584, 1499
2771, 1444, 1664, 1504, 1847
2772, 751, 1529, 1443, 1276
2773, 1096, 1544, 1069, 1910
2774, 1237, 951, 931, 1442
2775, 1096, 1069, 1544, 1240
2776, 1152, 1121, 869, 1548
2777, 1126, 1792, 1456, 1809
2778, 1022, 710, 1549, 1607
2779, 272, 1494, 1695, 260
2780, 1372, 1470, 1784, 1853
2781, 1477, 1760, 867, 1874
2782, 1123, 1473, 820, 985
2783, 173, 176, 1571, 1611
2784, 641, 1603, 325, 1435
2785, 1771, 1178, 1866, 1209
2786, 1379, 1613, 1522, 1614
2787, 449, 1470, 548, 1670
2788, 1196, 1177, 1015, 1456
2789, 162, 1710, 1519, 1848
2790, 814, 816, 815, 1439
2791, 1037, 1525, 1058, 1843
2792, 1585, 1392, 1906, 1648
2793, 556, 1489, 506, 1917
2794, 1279, 1523, 1186, 1691
2795, 880, 1528, 878, 1801
2796, 1618, 1797, 1489, 1917
2797, 540, 1572, 386, 558
2798, 145, 1634, 143, 144
2799, 1458, 1640, 1375, 1676
2800, 804, 797, 819, 1635
2801, 737, 1455, 1678, 1811
2802, 714, 1806, 1433, 1820
2803, 1386, 1778, 1546, 1908
2804, 1523, 1534, 1393, 1658
2805, 285, 1497, 102, 1551
2806, 643, 431, 1575, 1787
2807, 1896, 1789, 1800, 1473
2808, 349, 350, 1600, 1903
2809, 1444, 1422, 1755, 1747
2810, 1110, 1070, 1289, 1574
2811, 323, 1663, 1492, 1852
2812, 1504, 1718, 1441, 1905
2813, 1506, 300, 1688, 1546
2814, 1364, 1105, 1365, 1590
2815, 817, 1439, 822, 1473
2816, 559, 1483, 674, 1620
2817, 1116, 1802, 961, 1781
2818, 61, 545, 60, 1438
2819, 890, 1741, 1402, 1899
2820, 608, 1450, 632, 52
2821, 1509, 1516, 1451, 1891
2822, 230, 1488, 228, 1732
2823, 1708, 1738, 1544, 1910
2824, 1346, 1775, 1467, 1808
2825, 1539, 1705, 1570, 1819
2826, 335, 260, 582, 1460
2827, 130, 16, 1527, 1651
2828, 314, 432, 1520, 1627
2829, 1457, 1682, 1592, 1714
2830, 1371, 767, 1089, 1711
2831, 1258, 976, 1466, 1718
2832, 967, 1535, 1440, 1873
2833, 1446, 1407, 1808, 1765
2834, 1414, 1645, 1635, 1764
2835, 1429, 1455, 1545, 1619
2836, 382, 1747, 1706, 1859
2837, 1492, 1706, 1609, 1750
2838, 1816, 1624, 1541, 1401
2839, 1499, 1893, 1392, 1906
2840, 399, 1543, 446, 1915
2841, 58, 538, 62, 1464
2842, 446, 1543, 1447, 1915
2843, 584, 320, 458, 1906
2844, 1671, 1753, 1443, 1792
2845, 1847, 1621, 1755, 1444
2846, 1504, 1718, 1450, 1880
2847, 663, 115, 640, 1887
2848, 727, 1383, 1403, 1210
2849, 590, 383, 1506, 1756
2850, 1110, 1070, 1574, 1910
2851, 1016, 1922, 956, 1649
2852, 1415, 1738, 1723, 1708
2853, 1433, 1400, 1699, 1656
2854, 30, 1504, 31, 1905
2855, 1571, 1531, 1423, 1891
2856, 1259, 913, 1823, 1885
2857, 1798, 1191, 1347, 1174
2858, 1384, 1630, 1479, 1686
2859, 49, 1562, 318, 1747
2860, 1489, 1518, 1373, 1630
2861, 1384, 1518, 1489, 1630
2862, 851, 1370, 1445, 1760
2863, 1433, 1400, 1656, 1815
2864, 1211, 1595, 1577, 1882
2865, 40, 1566, 1451, 1629
2866, 1530, 1692, 1430, 1845
2867, 526, 259, 443, 1695
2868, 467, 575, 1483, 1692
2869, 1470, 1561, 151, 1853
2870, 878, 1528, 880, 1661
2871, 1241, 1440, 935, 1321
2872, 240, 314, 386, 1453
2873, 1486, 1540, 1113, 1775
2874, 1216, 1212, 1260, 1812
2875, 1394, 1527, 1455, 1651
2876, 1706, 1750, 1492, 1859
2877, 1521, 1593, 1377, 1751
2878, 322, 1663, 1588, 1911
2879, 168, 1750, 1613, 1813
2880, 1752, 1596, 1374, 1447
2881, 1155, 1227, 1428, 1834
2882, 1307, 1429, 1083, 704
2883, 1443, 752, 1452, 1809
2884, 263, 1479, 189, 635
2885, 1280, 1540, 908, 1672
2886, 26, 46, 27, 1636
2887, 1393, 1512, 1471, 1707
2888, 849, 855, 850, 1459
2889, 673, 510, 135, 1559
2890, 1307, 1429, 704, 1665
2891, 921, 1812, 1442, 1345
2892, 1686, 1705, 1819, 1484
2893, 144, 1634, 392, 1893
2894, 1192, 1099, 1467, 1769
2895, 1232, 1443, 1220, 1890
2896, 827, 824, 1439, 1473
2897, 1519, 1536, 1376, 1710
2898, 1366, 722, 1731, 720
2899, 149, 1499, 148, 1893
2900, 849, 856, 855, 1459
2901, 1423, 1546, 1778, 1908
2902, 1058, 1525, 1037, 1828
2903, 1168, 890, 1023, 1768
2904, 643, 237, 537, 1464
2905, 1326, 1517, 1203, 1704
2906, 817, 815, 1439, 1473
2907, 329, 1579, 1722, 1860
2908, 1130, 1708, 1131, 1723
2909, 1168, 1402, 1785, 1899
2910, 850, 1434, 848, 1824
2911, 544, 543, 81, 1646
2912, 1510, 1668, 1411, 1839
2913, 925, 929, 926, 1922
2914, 763, 1552, 762, 1774
2915, 1828, 1336, 1230, 1780
2916, 540, 558, 200, 1454
2917, 841, 1714, 1446, 1796
2918, 1439, 1734, 1788, 1800
2919, 1395, 1420, 1643, 1652
2920, 1117, 782, 1703, 1719
2921, 916, 1111, 1540, 1672
2922, 1496, 609, 96, 1740
2923, 967, 1535, 745, 1440
2924, 1407, 1635, 1645, 1764
2925, 1603, 1698, 1435, 1861
2926, 31, 1504, 32, 1905
2927, 925, 1929, 929, 1922
2928, 1449, 1462, 1689, 1777
2929, 1470, 548, 1670, 1853
2930, 1489, 191, 192, 193
2931, 1377, 1554, 1521, 1831
2932, 975, 1754, 1469, 1839
2933, 393, 423, 675, 1550
2934, 1103, 1616, 736, 1795
2935, 109, 110, 694, 1481
2936, 965, 1919, 1109, 1930
2937, 1601, 1734, 1814, 1439
2938, 874, 1330, 872, 1661
2939, 865, 844, 1601, 1824
2940, 176, 171, 670, 1611
2941, 1384, 1582, 1479, 1745
2942, 1556, 1557, 507, 1900
2943, 820, 1304, 1187, 1473
2944, 738, 1739, 1316, 1645
2945, 1460, 1766, 1417, 1842
2946, 760, 1639, 1327, 1774
2947, 102, 1503, 88, 1568
2948, 1682, 860, 858, 939
2949, 124, 126, 125, 1494
2950, 777, 779, 778, 1683
2951, 1484, 1530, 1374, 1620
2952, 557, 584, 368, 1893
2953, 1478, 1456, 1783, 1904
2954, 484, 317, 1508, 1575
2955, 496, 497, 1578, 1826
2956, 1001, 1490, 1003, 1339
2957, 1403, 1680, 1426, 1749
2958, 1343, 1127, 1501, 1697
2959, 413, 1584, 1633, 1756
2960, 751, 1529, 1276, 755
2961, 1423, 1675, 1588, 1891
2962, 1425, 1639, 1482, 1869
2963, 747, 1440, 745, 1793
2964, 975, 1754, 1018, 1821
2965, 67, 1698, 64, 1861
2966, 738, 1316, 1739, 732
2967, 1121, 835, 1746, 1835
2968, 1722, 329, 10, 1579
2969, 331, 1578, 1555, 1838
2970, 547, 333, 503, 1496
2971, 750, 1443, 1758, 1792
2972, 1130, 1131, 1282, 1723
2973, 154, 1709, 1536, 1898
2974, 626, 126, 131, 1644
2975, 698, 1928, 81, 1646
2976, 795, 796, 1587, 1772
2977, 1160, 1560, 1296, 1731
2978, 1478, 1456, 1904, 1809
2979, 1450, 1718, 1504, 1905
2980, 1581, 968, 1217, 1881
2981, 1103, 1295, 1726, 1795
2982, 134, 131, 133, 1644
2983, 99, 547, 503, 1496
2984, 1220, 1565, 1013, 1012
2985, 159, 160, 138, 1724
2986, 1580, 1700, 1413, 1846
2987, 1914, 1382, 1413, 1679
2988, 1242, 709, 1466, 1857
2989, 560, 1482, 54, 1580
2990, 1040, 1843, 1524, 1876
2991, 582, 335, 1460, 1887
2992, 1383, 1577, 741, 1628
2993, 1114, 1316, 1185, 1691
2994, 1886, 1739, 1316, 732
2995, 1608, 1872, 212, 1894
2996, 1709, 1710, 1536, 1898
2997, 1466, 1632, 1524, 1857
2998, 65, 1646, 70, 1861
2999, 1385, 1788, 1734, 1800
3000, 870, 1477, 869, 868
3001, 1380, 1722, 1579, 1838
3002, 1536, 1709, 1376, 1710
3003, 1373, 1518, 1618, 1833
3004, 1694, 275, 499, 1674
3005, 1418, 1419, 1717, 1720
3006, 92, 1615, 1751, 94
3007, 197, 180, 278, 1430
3008, 1706, 1747, 1422, 1859
3009, 1418, 1623, 1702, 1729
3010, 892, 893, 894, 1448
3011, 1399, 1683, 1667, 1770
3012, 173, 1611, 1571, 1875
3013, 1779, 1475, 1686, 1374
3014, 673, 133, 510, 1559
3015, 167, 1613, 1522, 1813
3016, 1386, 1681, 1511, 1916
3017, 1511, 1778, 1386, 1908
3018, 1230, 1780, 1525, 1828
3019, 1036, 1921, 1172, 1056
3020, 182, 178, 1511, 1681
3021, 1413, 1700, 1580, 1869
3022, 94, 1521, 597, 1615
3023, 832, 1491, 1100, 1693
3024, 1838, 555, 1509, 487
3025, 634, 627, 48, 1580
3026, 1364, 1105, 1590, 1905
3027, 339, 1495, 1657, 1836
3028, 944, 1363, 1005, 1431
3029, 1403, 1748, 725, 1770
3030, 1220, 1232, 1013, 1443
3031, 1382, 1539, 1810, 1819
3032, 531, 315, 1516, 1837
3033, 760, 759, 1639, 1774
3034, 1490, 1047, 1828, 1786
3035, 56, 1636, 1508, 1877
3036, 885, 1000, 1007, 1697
3037, 834, 1498, 836, 1760
3038, 166, 179, 165, 1613
3039, 1449, 1723, 1462, 1738
3040, 1453, 1375, 1830, 1867
3041, 333, 1496, 1648, 1906
3042, 892, 893, 1448, 1741
3043, 1487, 1622, 1868, 1785
3044, 1270, 960, 1081, 1856
3045, 1425, 1600, 1474, 1629
3046, 935, 799, 801, 1534
3047, 940, 1684, 1139, 1823
3048, 1394, 1522, 1613, 1614
3049, 1439, 1788, 1473, 1800
3050, 706, 1607, 7, 1834
3051, 1753, 1758, 1443, 1792
3052, 1204, 1637, 757, 1638
3053, 1395, 1420, 1652, 1763
3054, 105, 1493, 1761, 1817
3055, 841, 1714, 1796, 840
3056, 1305, 1181, 1287, 1515
3057, 1405, 1492, 1663, 1852
3058, 751, 1529, 755, 1758
3059, 1390, 1532, 1583, 1736
3060, 1444, 1441, 1590, 1504
3061, 1470, 1670, 1376, 1784
3062, 143, 1585, 403, 1541
3063, 1470, 1376, 1670, 1709
3064, 528, 398, 1508, 1575
3065, 1595, 1689, 989, 753
3066, 1387, 1531, 1778, 1855
3067, 856, 855, 1459, 1812
3068, 1398, 1523, 1534, 1873
3069, 350, 1600, 1474, 1883
3070, 1405, 1492, 1852, 1533
3071, 1387, 1778, 1570, 1855
3072, 1375, 1537, 1830, 1867
3073, 1128, 1046, 1129, 1890
3074, 1447, 1475, 1630, 1878
3075, 36, 1538, 37, 1811
3076, 1628, 1703, 1419, 1719
3077, 303, 327, 1495, 1685
3078, 1182, 947, 1491, 1693
3079, 1418, 1623, 1544, 1702
3080, 510, 135, 1559, 1642
3081, 1069, 1544, 1068, 1738
3082, 263, 1479, 635, 1582
3083, 1001, 1697, 1501, 1786
3084, 422, 504, 1621, 1664
3085, 240, 1453, 607, 1830
3086, 849, 1216, 1459, 1824
3087, 10, 713, 1227, 1699
3088, 1631, 1863, 1653, 1718
3089, 173, 172, 1611, 1875
3090, 1080, 1203, 1340, 1704
3091, 1169, 1081, 1078, 1704
3092, 881, 1548, 1661, 884
3093, 1445, 1637, 1477, 1760
3094, 587, 1556, 566, 1900
3095, 1487, 1683, 1399, 1770
3096, 1384, 1475, 1630, 1686
3097, 1057, 1507, 700, 1636
3098, 449, 1470, 1670, 1709
3099, 1435, 1654, 1617, 1673
3100, 310, 308, 309, 1728
3101, 823, 825, 826, 1473
3102, 1496, 1499, 1392, 1906
3103, 387, 1520, 388, 1853
3104, 1921, 1056, 1036, 1843
3105, 1150, 1250, 1502, 1823
3106, 141, 1541, 250, 1624
3107, 1553, 933, 1491, 1190
3108, 1177, 1015, 1456, 1671
3109, 452, 1492, 1533, 1852
3110, 537, 236, 261, 1603
3111, 793, 1772, 1687, 1895
3112, 1002, 1001, 944, 1697
3113, 1460, 1417, 1766, 1644
3114, 1510, 1667, 1577, 1729
3115, 240, 386, 607, 1453
3116, 745, 747, 967, 1440
3117, 680, 495, 326, 1458
3118, 5, 710, 1251, 1549
3119, 1374, 1630, 1475, 1686
3120, 92, 1615, 94, 629
3121, 822, 1118, 824, 1439
3122, 1032, 1524, 1034, 1843
3123, 1687, 1440, 1535, 1534
3124, 598, 249, 241, 1744
3125, 1445, 1637, 1498, 1789
3126, 1228, 1009, 1157, 1672
3127, 1471, 1690, 1432, 1759
3128, 1430, 1468, 1497, 1503
3129, 1694, 499, 275, 573
3130, 1073, 1399, 990, 1071
3131, 946, 1092, 1528, 1801
3132, 920, 921, 922, 1850
3133, 291, 288, 623, 1878
3134, 721, 1662, 1748, 720
3135, 1637, 1659, 1498, 1789
3136, 70, 1646, 76, 1547
3137, 199, 201, 198, 1597
3138, 1172, 1056, 1921, 1507
3139, 1827, 1748, 1731, 722
3140, 1816, 1624, 1401, 1594
3141, 1447, 1596, 1475, 1878
3142, 1158, 1088, 1517, 1704
3143, 902, 905, 1280, 1540
3144, 767, 1684, 1089, 1711
3145, 1122, 741, 1383, 1577
3146, 677, 1511, 175, 1875
3147, 772, 975, 1815, 1839
3148, 514, 673, 135, 1559
3149, 1391, 1538, 1516, 1837
3150, 1300, 1446, 841, 842
3151, 1222, 1011, 1607, 1684
3152, 1428, 1699, 1227, 1806
3153, 977, 1473, 1788, 1789
3154, 808, 810, 1332, 1721
3155, 1449, 1689, 1463, 1777
3156, 406, 1556, 587, 1900
3157, 1878, 288, 290, 291
3158, 1392, 1761, 1493, 1817
3159, 1083, 744, 1306, 1619
3160, 1560, 1885, 888, 1899
3161, 1248, 1168, 1768, 1785
3162, 218, 1641, 594, 1750
3163, 412, 411, 1633, 1870
3164, 1878, 290, 288, 1475
3165, 222, 1570, 182, 1855
3166, 1455, 1678, 1651, 1776
3167, 323, 1492, 681, 1852
3168, 349, 1855, 1600, 224
3169, 1553, 933, 1190, 1123
3170, 1265, 894, 1323, 1486
3171, 617, 1489, 191, 1745
3172, 1153, 1462, 1053, 1738
3173, 747, 1589, 1440, 1753
3174, 217, 575, 539, 1530
3175, 310, 344, 661, 1917
3176, 325, 659, 641, 1435
3177, 1328, 1222, 1011, 1607
3178, 189, 187, 635, 1479
3179, 1443, 1753, 1565, 1758
3180, 19, 1665, 1664, 1805
3181, 1207, 767, 763, 1774
3182, 1173, 1635, 1437, 1798
3183, 164, 1826, 167, 1613
3184, 531, 315, 512, 1516
3185, 177, 1511, 178, 1612
3186, 621, 142, 232, 1634
3187, 1395, 1696, 1737, 1617
3188, 1622, 1662, 1427, 1785
3189, 154, 612, 1536, 1670
3190, 1577, 1667, 743, 1729
3191, 1521, 1615, 1376, 1740
3192, 1410, 1609, 1492, 1706
3193, 1561, 1564, 1470, 1799
3194, 29, 1508, 606, 1450
3195, 1149, 1502, 1820, 1913
3196, 1426, 784, 1703, 785
3197, 194, 193, 556, 1489
3198, 695, 332, 1505, 1847
3199, 222, 424, 523, 1570
3200, 1161, 1660, 1659, 1707
3201, 412, 413, 450, 1584
3202, 977, 978, 831, 1553
3203, 1152, 1548, 1359, 1697
3204, 824, 1118, 844, 1439
3205, 1440, 1719, 1535, 1793
3206, 1237, 931, 921, 1442
3207, 595, 444, 395, 1526
3208, 705, 1699, 11, 1860
3209, 324, 455, 547, 1648
3210, 1342, 1502, 1140, 1684
3211, 1921, 1524, 1056, 1843
3212, 1400, 1579, 1552, 1699
3213, 927, 1930, 1175, 964
3214, 1681, 1779, 1530, 1916
3215, 1921, 1507, 1056, 1524
3216, 1391, 1516, 1509, 1891
3217, 1082, 1179, 938, 1514
3218, 1378, 1405, 1586, 1655
3219, 1518, 1797, 1618, 1907
3220, 1051, 1632, 1462, 1783
3221, 289, 288, 290, 1475
3222, 1716, 189, 188, 190
3223, 974, 1682, 1446, 1764
3224, 290, 1844, 1475, 1878
3225, 1421, 1642, 1610, 1767
3226, 1487, 1768, 1785, 1881
3227, 1232, 1671, 1443, 1890
3228, 1447, 1596, 1878, 1915
3229, 651, 366, 44, 1451
3230, 89, 1767, 1390, 1865
3231, 433, 1520, 1670, 1853
3232, 858, 1682, 939, 1283
3233, 56, 1450, 24, 608
3234, 833, 805, 807, 1471
3235, 1716, 188, 189, 1479
3236, 1570, 1705, 1484, 1819
3237, 1294, 1920, 1367, 926
3238, 1405, 1663, 1598, 1852
3239, 1385, 1512, 1471, 1721
3240, 1922, 937, 1920, 955
3241, 1338, 1126, 1804, 1809
3242, 397, 402, 444, 1655
3243, 1525, 1780, 1478, 1909
3244, 461, 1926, 460, 1695
3245, 1114, 738, 1316, 1764
3246, 1920, 1825, 955, 965
3247, 1486, 1515, 1448, 1856
3248, 1395, 1737, 1696, 1533
3249, 336, 274, 335, 1766
3250, 1366, 724, 1731, 1827
3251, 1509, 1531, 1451, 1903
3252, 843, 1269, 1215, 1742
3253, 1484, 1374, 1530, 1779
3254, 199, 201, 1597, 1830
3255, 74, 1654, 1485, 1733
3256, 1133, 787, 1355, 1771
3257, 1631, 1863, 1718, 1466
3258, 681, 323, 600, 1492
3259, 1835, 1864, 1727, 1890
3260, 1687, 1440, 1534, 1241
3261, 1641, 1663, 1379, 1735
3262, 884, 943, 942, 1638
3263, 1920, 1825, 965, 1930
3264, 1478, 1027, 1780, 1818
3265, 1926, 258, 257, 256
3266, 1217, 1680, 1581, 1881
3267, 1446, 1714, 839, 1808
3268, 1158, 1169, 1704, 1827
3269, 565, 1511, 677, 1571
3270, 951, 1442, 1237, 1812
3271, 701, 1, 2, 1639
3272, 1014, 1671, 1178, 1866
3273, 1499, 1710, 1709, 1898
3274, 1622, 1785, 771, 1868
3275, 980, 978, 1637, 991
3276, 936, 1360, 935, 1866
3277, 1503, 1408, 1586, 1865
3278, 1405, 1663, 1641, 1735
3279, 1367, 927, 924, 1825
3280, 1425, 1580, 1482, 1902
3281, 93, 1532, 1390, 116
3282, 1436, 1715, 1381, 1728
3283, 807, 806, 808, 1721
3284, 1443, 1727, 1864, 1890
3285, 1581, 1487, 968, 1881
3286, 994, 1085, 1729, 1882
3287, 1510, 1353, 1253, 1086
3288, 1291, 1514, 1290, 1850
3289, 1493, 1541, 1401, 1816
3290, 15, 1619, 1138, 1669
3291, 1313, 1203, 898, 1517
3292, 669, 1526, 1652, 1901
3293, 503, 1496, 319, 1848
3294, 853, 1089, 1250, 1829
3295, 1426, 1403, 1581, 1680
3296, 545, 61, 667, 1698
3297, 150, 148, 149, 1499
3298, 1601, 1814, 1734, 1434
3299, 88, 1568, 1503, 1865
3300, 1496, 96, 609, 696
3301, 1477, 1638, 1548, 1746
3302, 946, 1693, 948, 1801
3303, 453, 1493, 107, 1888
3304, 672, 1556, 112, 1625
3305, 786, 1717, 1355, 1720
3306, 1182, 947, 1264, 1491
3307, 581, 166, 168, 1750
3308, 1122, 741, 1210, 1383
3309, 1025, 1154, 1361, 1707
3310, 1294, 1930, 1175, 1367
3311, 1086, 1019, 866, 1839
3312, 1574, 1653, 1441, 1805
3313, 1415, 1653, 1574, 1805
3314, 1052, 1462, 1777, 1783
3315, 232, 1461, 1583, 1858
3316, 1496, 319, 1710, 1906
3317, 339, 1495, 1836, 305
3318, 1420, 1610, 1559, 1766
3319, 504, 18, 1621, 1664
3320, 112, 1556, 567, 1625
3321, 319, 503, 333, 1496
3322, 927, 1930, 964, 1825
3323, 131, 1644, 126, 1773
3324, 401, 1468, 645, 1807
3325, 986, 1456, 1126, 1792
3326, 1522, 1611, 169, 1813
3327, 1157, 918, 1649, 1672
3328, 1551, 1596, 1447, 1915
3329, 1748, 1731, 722, 720
3330, 1101, 1524, 1507, 1032
3331, 1432, 754, 1589, 1726
3332, 889, 898, 1517, 1899
3333, 902, 903, 901, 1540
3334, 920, 922, 1542, 1850
3335, 487, 1509, 1838, 1903
3336, 743, 1085, 1577, 1729
3337, 795, 794, 796, 1772
3338, 1465, 1685, 1488, 1879
3339, 1411, 1469, 1668, 1669
3340, 1450, 1718, 22, 1880
3341, 840, 1592, 838, 1714
3342, 989, 1689, 987, 753
3343, 93, 1532, 116, 529
3344, 1198, 1743, 1412, 1592
3345, 253, 1926, 1900, 255
3346, 1430, 1681, 1530, 1916
3347, 1596, 1779, 1688, 1497
3348, 325, 262, 341, 1617
3349, 1676, 1712, 1701, 1373
3350, 628, 1736, 1610, 474
3351, 1177, 1777, 1456, 1783
3352, 1278, 1793, 742, 1595
3353, 501, 1870, 377, 379
3354, 277, 1537, 1606, 1627
3355, 529, 1593, 1532, 1817
3356, 1801, 1218, 878, 882
3357, 1419, 1720, 1595, 1771
3358, 1372, 1453, 1640, 1712
3359, 443, 272, 1694, 1695
3360, 164, 167, 1826, 691
3361, 1190, 945, 933, 1491
3362, 33, 692, 34, 1562
3363, 1451, 1666, 1423, 1675
3364, 1827, 1856, 1081, 1448
3365, 1324, 860, 1290, 1840
3366, 413, 583, 1584, 1756
3367, 536, 395, 1526, 1696
3368, 282, 1791, 1558, 1897
3369, 1399, 1683, 1487, 1868
3370, 1793, 1577, 742, 1595
3371, 1587, 1691, 1523, 1886
3372, 1498, 1332, 1721, 811
3373, 587, 566, 264, 1900
3374, 412, 450, 585, 1584
3375, 1801, 878, 1218, 876
3376, 33, 34, 1335, 1562
3377, 1437, 1739, 1772, 1895
3378, 768, 769, 1815, 1829
3379, 1839, 1019, 1018, 1754
3380, 1431, 1343, 1152, 1244
3381, 1099, 957, 1192, 1467
3382, 393, 448, 1550, 675
3383, 1610, 1736, 1559, 1766
3384, 390, 443, 1694, 1695
3385, 674, 559, 439, 1483
3386, 1149, 1142, 1502, 1913
3387, 220, 228, 227, 1822
3388, 1398, 1587, 1523, 1886
3389, 1557, 508, 507, 354
3390, 1572, 1701, 1712, 1454
3391, 532, 1685, 494, 1879
3392, 874, 1528, 1330, 1661
3393, 851, 1091, 1874, 1896
3394, 1223, 1727, 1501, 1918
3395, 1597, 1676, 1480, 1830
3396, 1426, 1383, 1581, 1403
3397, 1557, 507, 508, 1556
3398, 1066, 1478, 1904, 1909
3399, 553, 1576, 554, 1657
3400, 1376, 1499, 1496, 1710
3401, 1387, 1666, 1629, 1841
3402, 37, 36, 531, 1538
3403, 308, 1618, 307, 1833
3404, 1388, 1602, 1469, 1669
3405, 1426, 1383, 1403, 1628
3406, 1422, 1750, 1706, 1859
3407, 1510, 1577, 1418, 1729
3408, 143, 403, 1585, 145
3409, 1165, 1542, 1919, 1239
3410, 1025, 1707, 1161, 1659
3411, 1535, 1687, 1426, 1719
3412, 580, 1618, 1518, 1833
3413, 1406, 1604, 1549, 1834
3414, 1333, 1173, 792, 1895
3415, 1149, 1502, 1806, 1820
3416, 1499, 1376, 1709, 1710
3417, 1510, 1683, 1399, 1839
3418, 1863, 1632, 1653, 1162
3419, 1196, 1783, 1456, 1904
3420, 470, 59, 1549, 1604
3421, 442, 647, 441, 1547
3422, 1123, 1473, 985, 1553
3423, 1463, 748, 1689, 753
3424, 1793, 1628, 1419, 1719
3425, 1909, 1129, 1236, 1257
3426, 1238, 1524, 1040, 1843
3427, 228, 230, 229, 1488
3428, 1618, 1797, 340, 1907
3429, 416, 1736, 1766, 1871
3430, 1657, 1732, 1495, 479
3431, 344, 578, 646, 1715
3432, 668, 14, 45, 1647
3433, 464, 1797, 373, 1476
3434, 35, 1678, 687, 1811
3435, 940, 1684, 1011, 1139
3436, 57, 398, 58, 1505
3437, 455, 1493, 334, 1648
3438, 1701, 1712, 1630, 1373
3439, 373, 1797, 464, 616
3440, 1102, 1008, 1293, 1786
3441, 328, 394, 262, 1696
3442, 1433, 1656, 1725, 1815
3443, 162, 1519, 505, 1848
3444, 1819, 1756, 1506, 1546
3445, 1488, 1375, 1606, 1732
3446, 1453, 1375, 1867, 1640
3447, 1388, 1647, 1602, 1669
3448, 329, 649, 576, 1722
3449, 505, 162, 215, 1519
3450, 1475, 1384, 1584, 1686
3451, 911, 910, 1823, 1885
3452, 450, 585, 1584, 1844
3453, 1067, 1442, 1245, 1542
3454, 1383, 1667, 1683, 1770
3455, 125, 126, 626, 1494
3456, 1189, 1482, 712, 1549
3457, 645, 1598, 104, 1807
3458, 154, 449, 1670, 1709
3459, 1756, 1686, 1819, 1506
3460, 628, 1390, 116, 89
3461, 1387, 1539, 1600, 1855
3462, 433, 388, 1520, 1853
3463, 799, 798, 800, 1534
3464, 901, 916, 1111, 1540
3465, 1581, 968, 1487, 1683
3466, 1819, 1756, 1546, 1810
3467, 290, 289, 1475, 1844
3468, 1529, 1759, 1432, 1864
3469, 1121, 1244, 835, 1835
3470, 556, 195, 506, 1489
3471, 506, 1797, 1489, 195
3472, 1239, 1165, 1285, 1919
3473, 749, 1589, 1753, 1758
3474, 643, 1464, 542, 1787
3475, 917, 1927, 1672, 1180
3476, 720, 718, 719, 1662
3477, 747, 1753, 1440, 1793
3478, 1391, 1538, 1837, 1911
3479, 276, 277, 1537, 1606
3480, 68, 1654, 69, 1737
3481, 1827, 1856, 1448, 1713
3482, 315, 44, 1516, 1675
3483, 12, 1602, 1656, 1860
3484, 1196, 1177, 1456, 1783
3485, 56, 1508, 317, 1877
3486, 1378, 1405, 1655, 1573
3487, 302, 298, 1500, 1836
3488, 607, 1701, 201, 1830
3489, 1457, 1742, 1145, 1743
3490, 1140, 1684, 1502, 1823
3491, 324, 105, 1493, 1761
3492, 1594, 1624, 1401, 1912
3493, 468, 1541, 404, 1585
3494, 418, 114, 614, 1889
3495, 1372, 1784, 1520, 1853
3496, 1253, 1086, 1319, 1510
3497, 1382, 1705, 1539, 1819
3498, 1653, 1718, 1441, 1805
3499, 1056, 1057, 1317, 1507
3500, 1850, 1345, 863, 921
3501, 121, 1674, 124, 1694
3502, 174, 478, 1573, 1612
3503, 1861, 690, 68, 1435
3504, 178, 565, 182, 1511
3505, 1178, 1325, 787, 1720
3506, 1091, 851, 1370, 1896
3507, 1379, 1641, 1492, 1663
3508, 410, 1633, 1413, 642
3509, 1835, 1759, 1746, 1409
3510, 186, 184, 185, 1484
3511, 1242, 1258, 976, 1466
3512, 1870, 1584, 1476, 1382
3513, 180, 177, 178, 1612
3514, 1456, 1804, 1126, 1809
3515, 592, 363, 419, 1908
3516, 922, 931, 934, 1542
3517, 1272, 1741, 1704, 893
3518, 1310, 1282, 702, 1631
3519, 614, 1888, 1481, 1889
3520, 839, 842, 1446, 1808
3521, 303, 326, 516, 1685
3522, 1571, 1423, 1531, 1778
3523, 1192, 1467, 957, 1765
3524, 1686, 1819, 1705, 1382
3525, 1510, 1353, 1086, 1702
3526, 1450, 30, 1863, 1905
3527, 130, 1651, 1527, 1826
3528, 1850, 1345, 921, 1442
3529, 1453, 1372, 1572, 1712
3530, 1149, 1502, 1342, 1806
3531, 1037, 1525, 1039, 1828
3532, 369, 22, 1718, 1880
3533, 407, 1604, 1482, 1902
3534, 118, 499, 117, 1674
3535, 1451, 1675, 1423, 1891
3536, 1058, 1231, 1035, 1843
3537, 1071, 715, 1176, 1656
3538, 330, 1838, 1555, 1860
3539, 418, 1625, 346, 1744
3540, 541, 449, 1709, 1799
3541, 1389, 1551, 1497, 1845
3542, 791, 1680, 1217, 1881
3543, 1847, 1718, 357, 1664
3544, 1101, 24, 707, 1507
3545, 962, 964, 1302, 1542
3546, 299, 298, 477, 1728
3547, 1370, 836, 1006, 1498
3548, 1405, 1605, 1598, 1586
3549, 116, 474, 596, 1736
3550, 1919, 1224, 1239, 1542
3551, 1395, 1526, 1533, 1696
3552, 172, 174, 1573, 1875
3553, 750, 1443, 751, 1758
3554, 1444, 1422, 1747, 1562
3555, 1444, 1422, 1562, 1621
3556, 1605, 1655, 1421, 1586
3557, 881, 1548, 884, 885
3558, 308, 661, 1618, 1917
3559, 1383, 1577, 1510, 1667
3560, 1498, 1332, 811, 1006
3561, 275, 462, 463, 1485
3562, 1422, 1609, 1706, 1750
3563, 1443, 1452, 752, 1727
3564, 532, 1495, 327, 1685
3565, 1469, 1815, 975, 1839
3566, 1496, 1521, 1376, 1740
3567, 989, 1708, 1449, 1882
3568, 1746, 1759, 1835, 835
3569, 167, 168, 1613, 1813
3570, 500, 579, 1598, 1663
3571, 1469, 1668, 1399, 1839
3572, 1411, 1668, 1469, 1839
3573, 190, 540, 200, 1716
3574, 204, 1480, 203, 1608
3575, 1004, 1288, 1246, 1786
3576, 1517, 1704, 1326, 1741
3577, 1457, 1796, 1742, 1840
3578, 1160, 1141, 1560, 1885
3579, 1198, 1188, 1199, 1412
3580, 186, 217, 184, 1620
3581, 350, 1474, 589, 1883
3582, 45, 1555, 1647, 1602
3583, 1530, 1620, 674, 1483
3584, 1393, 1534, 1589, 1690
3585, 104, 1605, 1598, 579
3586, 1384, 1479, 1630, 1745
3587, 1447, 1878, 304, 1915
3588, 839, 842, 841, 1446
3589, 172, 1573, 1735, 1875
3590, 1402, 1448, 1741, 1768
3591, 271, 1575, 267, 1787
3592, 684, 370, 605, 1460
3593, 1231, 1525, 1058, 1828
3594, 314, 388, 387, 1520
3595, 1235, 29, 1450, 1507
3596, 189, 1716, 1479, 1745
3597, 1766, 1494, 1420, 1849
3598, 540, 1701, 1454, 1716
3599, 1010, 1823, 1684, 940
3600, 1727, 1835, 1529, 1864
3601, 315, 44, 512, 1516
3602, 124, 599, 312, 1485
3603, 1099, 1649, 956, 1672
3604, 1478, 1452, 1809, 1904
3605, 628, 1736, 474, 116
3606, 900, 1591, 1267, 904
3607, 1469, 1602, 1400, 1656
3608, 351, 1700, 1600, 1902
3609, 820, 821, 985, 1473
3610, 1482, 1580, 1425, 1869
3611, 1186, 1369, 1030, 1803
3612, 1489, 1716, 191, 1745
3613, 1405, 1655, 1605, 1586
3614, 1551, 1596, 1497, 1845
3615, 1388, 1669, 1469, 1754
3616, 1456, 1689, 1462, 1777
3617, 113, 109, 1481, 1888
3618, 1448, 1713, 1515, 1768
3619, 570, 418, 1744, 1889
3620, 1522, 1613, 167, 1826
3621, 242, 1557, 1556, 1900
3622, 287, 286, 1596, 1688
3623, 1657, 1732, 479, 553
3624, 177, 175, 178, 1511
3625, 1391, 1837, 1588, 1911
3626, 1677, 342, 311, 457
3627, 580, 1518, 1618, 1907
3628, 1526, 1696, 1395, 1901
3629, 501, 1870, 379, 412
3630, 964, 1542, 962, 1825
3631, 1517, 1885, 1560, 1899
3632, 921, 1812, 1345, 1090
3633, 1453, 1375, 1640, 1676
3634, 34, 1562, 687, 1678
3635, 938, 962, 1542, 1825
3636, 581, 218, 594, 1750
3637, 814, 812, 1205, 1734
3638, 1393, 1534, 1523, 1795
3639, 1710, 158, 214, 1536
3640, 1710, 214, 158, 162
3641, 1632, 1478, 1050, 1876
3642, 343, 1657, 466, 1677
3643, 824, 822, 1439, 1473
3644, 620, 1655, 1573, 1897
3645, 175, 677, 565, 1511
3646, 1142, 1342, 1149, 1502
3647, 25, 1098, 707, 1507
3648, 1337, 1452, 1338, 1780
3649, 1400, 1699, 1656, 1860
3650, 512, 1650, 1516, 1790
3651, 430, 484, 678, 1575
3652, 430, 643, 431, 1575
3653, 1162, 1051, 1632, 1862
3654, 289, 1844, 450, 1584
3655, 1470, 1376, 1709, 1831
3656, 951, 1029, 982, 1812
3657, 32, 1590, 1105, 1905
3658, 318, 382, 49, 1747
3659, 1572, 1712, 1701, 1453
3660, 326, 495, 516, 1685
3661, 1244, 1501, 1128, 1835
3662, 792, 1173, 1772, 1895
3663, 294, 580, 1518, 1833
3664, 1397, 1612, 1511, 1875
3665, 1766, 1420, 1494, 1644
3666, 1143, 1549, 1607, 1774
3667, 463, 74, 356, 1654
3668, 495, 451, 662, 1543
3669, 1684, 1222, 706, 1607
3670, 634, 48, 550, 1580
3671, 1684, 706, 1222, 1268
3672, 579, 83, 1605, 1852
3673, 1419, 1383, 1703, 1628
3674, 1488, 1732, 1606, 1822
3675, 54, 1482, 550, 1580
3676, 1411, 1702, 1623, 1729
3677, 1870, 1584, 1382, 1633
3678, 529, 1532, 245, 1817
3679, 447, 1608, 212, 1894
3680, 1121, 1152, 1244, 1431
3681, 798, 795, 796, 1587
3682, 402, 624, 669, 1652
3683, 276, 525, 1576, 1894
3684, 989, 1723, 1449, 1708
3685, 290, 292, 1844, 1878
3686, 1419, 1719, 1133, 1771
3687, 470, 1482, 407, 1604
3688, 445, 429, 283, 1564
3689, 323, 600, 1492, 1859
3690, 1827, 1856, 1713, 1357
3691, 29, 606, 30, 1450
3692, 170, 1611, 172, 1735
3693, 1137, 1802, 1486, 1856
3694, 310, 311, 344, 1728
3695, 1393, 1616, 1523, 1658
3696, 1523, 1616, 1412, 1658
3697, 280, 281, 282, 1791
3698, 539, 181, 184, 1681
3699, 1415, 1738, 1708, 1910
3700, 1151, 871, 1359, 1697
3701, 446, 1447, 304, 1915
3702, 1003, 1336, 1339, 1490
3703, 1699, 11, 10, 713
3704, 108, 1481, 109, 1816
3705, 851, 867, 852, 1760
3706, 1365, 1105, 32, 1590
3707, 736, 1186, 1279, 1523
3708, 294, 1518, 1599, 1833
3709, 1246, 1288, 1341, 1786
3710, 749, 1758, 1753, 1792
3711, 705, 1656, 714, 1699
3712, 1286, 1552, 1171, 1757
3713, 830, 831, 1299, 1553
3714, 1469, 1669, 1411, 1754
3715, 141, 250, 593, 1624
3716, 1600, 1883, 351, 1902
3717, 1206, 1743, 1459, 1832
3718, 1135, 1096, 1110, 1545
3719, 1462, 1738, 1723, 1862
3720, 858, 1682, 1283, 1457
3721, 1880, 357, 1847, 1718
3722, 1734, 1788, 1385, 1814
3723, 167, 1522, 169, 1813
3724, 989, 1595, 753, 993
3725, 186, 1479, 188, 1620
3726, 1278, 1793, 1595, 753
3727, 392, 621, 423, 1461
3728, 1321, 1719, 1440, 1771
3729, 225, 498, 497, 1527
3730, 1046, 1257, 1129, 1909
3731, 520, 1541, 468, 1888
3732, 1495, 1576, 1375, 1732
3733, 1563, 1629, 1425, 1869
3734, 1552, 1699, 1428, 1730
3735, 151, 548, 449, 1470
3736, 1150, 1502, 1684, 1823
3737, 832, 1148, 1299, 1693
3738, 321, 230, 228, 1732
3739, 1827, 1856, 1357, 1081
3740, 1513, 1754, 1626, 1388
3741, 1699, 10, 11, 1579
3742, 624, 510, 133, 1652
3743, 1518, 1599, 1373, 1878
3744, 243, 524, 220, 1822
3745, 1432, 1758, 1529, 1864
3746, 1529, 1758, 1443, 1864
3747, 996, 1282, 1631, 1723
3748, 145, 1634, 144, 1893
3749, 239, 1867, 240, 1830
3750, 338, 1488, 532, 1879
3751, 618, 530, 1733, 1849
3752, 871, 1151, 1256, 1697
3753, 1216, 1260, 856, 1812
3754, 1513, 1602, 1400, 1821
3755, 1438, 1410, 1603, 1698
3756, 996, 1689, 987, 1723
3757, 423, 1550, 1461, 1858
3758, 109, 453, 107, 1888
3759, 1051, 1462, 1632, 1862
3760, 896, 893, 1272, 1704
3761, 1641, 1750, 218, 1813
3762, 1580, 1700, 425, 1902
3763, 1028, 1478, 1027, 1780
3764, 337, 1766, 530, 1849
3765, 1517, 1731, 724, 1827
3766, 751, 750, 1276, 1443
3767, 1501, 1697, 1127, 1786
3768, 83, 1533, 73, 1605
3769, 67, 64, 68, 1861
3770, 1390, 1461, 1532, 1593
3771, 1881, 1785, 1487, 1263
3772, 1496, 1392, 1648, 1906
3773, 27, 1057, 700, 1636
3774, 88, 1503, 1586, 1865
3775, 1455, 1394, 1678, 1811
3776, 1447, 1372, 1712, 1752
3777, 1565, 1671, 1013, 1866
3778, 1456, 1777, 1462, 1783
3779, 339, 1495, 305, 603
3780, 1408, 1767, 1586, 1865
3781, 1070, 1110, 1096, 1910
3782, 1374, 1530, 1483, 1620
3783, 101, 1674, 119, 118
3784, 507, 1557, 257, 1900
3785, 59, 7, 1549, 1834
3786, 119, 1674, 101, 1547
3787, 762, 763, 764, 1552
3788, 604, 226, 1608, 1715
3789, 1438, 1410, 1609, 1603
3790, 1438, 1410, 1698, 1706
3791, 1455, 1394, 1651, 1678
3792, 151, 652, 548, 1853
3793, 1493, 1392, 1585, 1648
3794, 245, 1816, 106, 1817
3795, 1374, 1483, 1530, 1845
3796, 969, 1455, 1678, 737
3797, 501, 412, 585, 1476
3798, 1481, 1624, 1424, 1744
3799, 1571, 1611, 1397, 1875
3800, 392, 1554, 149, 1893
3801, 1214, 1068, 1069, 1544
3802, 994, 1084, 1623, 1729
3803, 42, 1566, 1087, 41
3804, 1160, 1141, 1296, 1560
3805, 397, 1558, 1655, 1897
3806, 2, 627, 634, 1482
3807, 1459, 1434, 1601, 1832
3808, 1116, 1348, 1645, 1781
3809, 1479, 1716, 1630, 1745
3810, 229, 1488, 338, 1879
3811, 14, 1602, 45, 1647
3812, 75, 70, 65, 1646
3813, 892, 1768, 890, 1741
3814, 433, 1520, 432, 1670
3815, 663, 508, 672, 1625
3816, 1438, 1410, 1706, 1609
3817, 109, 694, 113, 1481
3818, 1503, 1568, 1408, 1865
3819, 1377, 1470, 1799, 1831
3820, 120, 122, 118, 1674
3821, 1389, 1561, 1483, 1692
3822, 1516, 1675, 1451, 1891
3823, 540, 1572, 558, 1454
3824, 466, 343, 436, 1657
3825, 1390, 1610, 1642, 1767
3826, 262, 325, 261, 1603
3827, 1454, 1572, 1483, 1752
3828, 1487, 1622, 1785, 1662
3829, 173, 171, 176, 1611
3830, 1617, 1654, 1435, 1737
3831, 292, 293, 294, 1878
3832, 1410, 1696, 1617, 1737
3833, 731, 1851, 1873, 1886
3834, 905, 902, 904, 1540
3835, 1510, 1702, 1418, 1717
3836, 376, 1679, 374, 434
3837, 272, 1494, 273, 1694
3838, 1012, 1565, 801, 1690
3839, 595, 1641, 527, 1735
3840, 276, 1537, 475, 1894
3841, 458, 334, 1585, 1648
3842, 567, 112, 469, 1556
3843, 1174, 1191, 828, 1798
3844, 526, 443, 390, 1695
3845, 1451, 40, 366, 44
3846, 1480, 1608, 1381, 1715
3847, 646, 1715, 428, 1917
3848, 736, 1311, 1186, 1616
3849, 395, 1641, 328, 594
3850, 994, 1623, 1708, 1882
3851, 41, 1841, 367, 1563
3852, 905, 1540, 904, 1591
3853, 1417, 1644, 1460, 1724
3854, 142, 140, 232, 1583
3855, 1462, 1689, 1456, 1804
3856, 292, 294, 1518, 1878
3857, 843, 1300, 1269, 1796
3858, 260, 1494, 274, 273
3859, 712, 3, 4, 1482
3860, 1409, 1197, 1431, 1529
3861, 1323, 1347, 1265, 1486
3862, 1239, 1224, 928, 1542
3863, 1475, 1518, 1384, 1630
3864, 1928, 1646, 1924, 81
3865, 900, 1267, 1591, 897
3866, 1167, 1552, 1730, 1892
3867, 1510, 1667, 1399, 1683
3868, 1418, 1419, 1577, 1717
3869, 1144, 1075, 1204, 1637
3870, 1750, 168, 218, 1813
3871, 810, 1332, 1721, 1800
3872, 1576, 1606, 1375, 1732
3873, 287, 289, 590, 1506
3874, 484, 430, 317, 1575
3875, 28, 1507, 1057, 1636
3876, 1449, 1708, 1544, 1882
3877, 851, 867, 1760, 1874
3878, 1730, 1821, 1167, 1892
3879, 1469, 1400, 1602, 1821
3880, 232, 423, 1461, 1858
3881, 1471, 1385, 1659, 1707
3882, 1311, 1369, 1186, 1803
3883, 1779, 1475, 1374, 1596
3884, 1449, 1689, 1462, 1723
3885, 268, 1538, 1911, 50
3886, 589, 1722, 1474, 1903
3887, 100, 1761, 1593, 1817
3888, 1779, 1596, 1845, 1497
3889, 1381, 1576, 1657, 1872
3890, 1451, 1531, 1509, 1891
3891, 1381, 1657, 1576, 1495
3892, 28, 1507, 788, 1057
3893, 1274, 1366, 724, 1731
3894, 209, 207, 226, 1608
3895, 1376, 1470, 1784, 1831
3896, 1637, 1638, 1477, 1760
3897, 108, 517, 1594, 1816
3898, 876, 1528, 1092, 1801
3899, 768, 769, 766, 1815
3900, 316, 1588, 1675, 1837
3901, 783, 1899, 1168, 1785
3902, 17, 16, 1651, 1794
3903, 92, 1615, 1472, 1751
3904, 199, 1597, 1480, 1830
3905, 1770, 1581, 1683, 1383
3906, 482, 1519, 229, 1879
3907, 625, 6, 5, 1549
3908, 662, 399, 629, 1543
3909, 720, 721, 722, 1748
3910, 1423, 1778, 1511, 1908
3911, 1520, 1627, 1416, 1867
3912, 1203, 1326, 898, 1517
3913, 385, 542, 1464, 1646
3914, 1409, 1197, 1529, 1362
3915, 900, 901, 899, 1540
3916, 748, 1753, 1463, 1792
3917, 1358, 1269, 992, 1442
3918, 234, 179, 1609, 1755
3919, 1378, 1405, 1598, 1586
3920, 1123, 985, 1190, 1553
3921, 210, 1657, 1872, 1677
3922, 889, 888, 898, 1899
3923, 545, 1698, 667, 1706
3924, 1463, 1440, 1753, 1793
3925, 151, 548, 1470, 1853
3926, 1443, 1727, 1529, 1864
3927, 1514, 1840, 1290, 1850
3928, 967, 1535, 1873, 1254
3929, 352, 414, 488, 1509
3930, 1386, 1908, 1688, 1916
3931, 1351, 1757, 1650, 1790
3932, 757, 1638, 1431, 1094
3933, 41, 1566, 40, 1629
3934, 827, 824, 844, 1439
3935, 1122, 743, 1577, 1667
3936, 77, 78, 1924, 683
3937, 335, 1842, 1460, 1887
3938, 1919, 1165, 1285, 964
3939, 1400, 1815, 1730, 1821
3940, 365, 471, 53, 1563
3941, 1478, 1783, 1050, 1904
3942, 1410, 1533, 1696, 1737
3943, 1523, 1587, 1412, 1691
3944, 308, 299, 309, 1728
3945, 92, 1615, 629, 1472
3946, 1464, 1646, 542, 1787
3947, 709, 1310, 1354, 1631
3948, 1422, 1379, 1750, 1859
3949, 184, 183, 185, 1484
3950, 1512, 1616, 1412, 1803
3951, 1563, 1425, 1700, 1869
3952, 1653, 1632, 1631, 1862
3953, 1206, 1742, 1459, 1743
3954, 302, 1500, 303, 1836
3955, 752, 1443, 1727, 1276
3956, 1174, 1265, 1347, 1798
3957, 1066, 1478, 1050, 1904
3958, 1680, 784, 785, 789
3959, 363, 1546, 419, 1908
3960, 383, 1810, 1756, 491
3961, 1465, 1416, 1640, 1784
3962, 793, 1687, 790, 1895
3963, 845, 827, 844, 1814
3964, 1183, 1107, 1513, 1626
3965, 785, 790, 1117, 1687
3966, 961, 1782, 1781, 1856
3967, 933, 1491, 887, 1874
3968, 1040, 1524, 1048, 1876
3969, 1779, 1475, 1596, 1506
3970, 874, 887, 1528, 1874
3971, 512, 39, 1650, 1790
3972, 1197, 1362, 755, 1529
3973, 210, 209, 1677, 1872
3974, 1209, 1178, 787, 1771
3975, 1140, 1502, 1142, 1823
3976, 22, 976, 1258, 1718
3977, 1164, 953, 1295, 1726
3978, 1252, 1659, 1161, 1660
3979, 1077, 1707, 1385, 1616
3980, 1463, 1771, 1440, 1793
3981, 14, 13, 45, 1602
3982, 840, 932, 838, 1592
3983, 72, 69, 1654, 1737
3984, 420, 1508, 1636, 1877
3985, 1417, 1842, 1766, 1871
3986, 1310, 702, 1354, 1631
3987, 1560, 1829, 1250, 1502
3988, 1595, 1689, 753, 1463
3989, 1214, 1353, 786, 1720
3990, 742, 1535, 1793, 745
3991, 1723, 1738, 1415, 1862
3992, 67, 231, 1698, 1737
3993, 120, 1674, 121, 1694
3994, 506, 1797, 195, 481
3995, 769, 1622, 1815, 1829
3996, 1390, 1610, 1559, 1642
3997, 625, 470, 6, 1549
3998, 1262, 1231, 1058, 1828
3999, 1567, 278, 283, 1692
4000, 397, 650, 282, 1897
4001, 1250, 1089, 1150, 1502
4002, 1402, 1448, 1768, 1713
4003, 105, 106, 1816, 1817
4004, 1440, 1463, 1753, 1866
4005, 317, 430, 355, 1575
4006, 1081, 960, 1078, 1591
4007, 530, 1610, 103, 1643
4008, 1250, 1829, 1560, 853
4009, 1522, 1613, 1379, 1813
4010, 439, 467, 674, 1483
4011, 1021, 7, 706, 1607
4012, 1610, 1643, 1420, 1652
4013, 1421, 1643, 1610, 1652
4014, 1018, 1754, 975, 1839
4015, 870, 1477, 868, 1661
4016, 1785, 1768, 1748, 1402
4017, 138, 160, 605, 1724
4018, 169, 670, 171, 1611
4019, 481, 1797, 1618, 1917
4020, 1409, 1637, 1498, 1760
4021, 782, 1355, 780, 1717
4022, 414, 223, 182, 1778
4023, 385, 542, 537, 1464
4024, 32, 31, 51, 1504
4025, 1457, 1459, 1742, 1743
4026, 1907, 307, 340, 1618
4027, 776, 1253, 1319, 1510
4028, 801, 800, 802, 1690
4029, 1407, 1775, 1486, 1798
4030, 1188, 1512, 803, 1658
4031, 1809, 1890, 1671, 1904
4032, 607, 198, 201, 1701
4033, 1383, 1683, 1510, 1717
4034, 1829, 783, 1899, 853
4035, 426, 1627, 244, 1762
4036, 523, 1539, 619, 1705
4037, 1249, 1025, 979, 1789
4038, 1660, 1707, 954, 1726
4039, 1724, 1594, 1887, 1842
4040, 1403, 1680, 1749, 1782
4041, 989, 1595, 993, 1882
4042, 1044, 1828, 1041, 1909
4043, 179, 166, 581, 1750
4044, 422, 233, 235, 1755
4045, 124, 1485, 127, 1773
4046, 1389, 1483, 1752, 1845
4047, 1756, 1819, 1686, 1382
4048, 833, 1471, 807, 1721
4049, 93, 1390, 1593, 1751
4050, 1688, 1908, 1468, 1916
4051, 1779, 1845, 1596, 1374
4052, 28, 1507, 1636, 29
4053, 943, 884, 971, 1477
4054, 911, 910, 912, 1823
4055, 1232, 1904, 1671, 1890
4056, 1606, 524, 362, 243
4057, 1881, 1785, 1263, 1248
4058, 827, 1195, 825, 1473
4059, 1000, 885, 944, 1697
4060, 534, 1609, 179, 1750
4061, 1611, 1735, 1397, 1875
4062, 346, 265, 249, 1556
4063, 1463, 1440, 1771, 1866
4064, 96, 597, 94, 1521
4065, 1153, 1053, 1068, 1738
4066, 1433, 1428, 1730, 1711
4067, 1223, 1501, 1002, 1918
4068, 1304, 1187, 1473, 1800
4069, 762, 759, 760, 1774
4070, 1467, 1765, 1192, 1769
4071, 1612, 1791, 478, 1897
4072, 468, 458, 334, 1585
4073, 214, 219, 215, 1822
4074, 1487, 1768, 1748, 1785
4075, 376, 1679, 434, 1846
4076, 1387, 1546, 1666, 1841
4077, 1384, 1518, 1475, 1844
4078, 1425, 1700, 1580, 1902
4079, 1386, 1779, 1681, 1916
4080, 1819, 1756, 1810, 1382
4081, 289, 1584, 583, 1756
4082, 785, 784, 1680, 1426
4083, 1510, 1577, 1383, 1717
4084, 109, 108, 110, 1481
4085, 1384, 1745, 1489, 1797
4086, 1428, 767, 765, 1711
4087, 834, 811, 836, 1498
4088, 1439, 1788, 1734, 1814
4089, 975, 1815, 1469, 1821
4090, 170, 169, 1611, 1813
4091, 204, 563, 202, 1894
4092, 26, 1507, 25, 1636
4093, 1256, 1320, 1697, 1786
4094, 1391, 1611, 1571, 1509
4095, 1400, 1602, 1555, 1860
4096, 13, 1602, 14, 1669
4097, 1113, 1540, 1112, 1775
4098, 538, 1575, 271, 1787
4099, 851, 1760, 1445, 1874
4100, 1481, 1424, 1625, 1744
4101, 581, 594, 534, 1750
4102, 41, 1841, 1563, 1629
4103, 272, 1494, 260, 273
4104, 12, 1656, 705, 1860
4105, 58, 60, 51, 1505
4106, 969, 1455, 737, 1273
4107, 1254, 731, 1851, 1873
4108, 1296, 1731, 1560, 1913
4109, 139, 1624, 159, 1724
4110, 1488, 1606, 1416, 1822
4111, 1058, 1037, 1166, 1828
4112, 107, 1493, 105, 1816
4113, 1632, 1050, 1478, 1783
4114, 1393, 1616, 1512, 1707
4115, 1342, 1142, 1140, 1502
4116, 785, 790, 1680, 789
4117, 1097, 1264, 947, 1491
4118, 132, 1494, 1694, 125
4119, 195, 1489, 617, 1797
4120, 119, 473, 599, 1674
4121, 1547, 79, 117, 101
4122, 521, 1810, 491, 365
4123, 1023, 892, 1181, 1768
4124, 1584, 1686, 1382, 1756
4125, 324, 453, 455, 1493
4126, 782, 780, 1703, 1717
4127, 669, 1652, 129, 1901
4128, 1277, 743, 1667, 1729
4129, 1205, 812, 1065, 1734
4130, 330, 1555, 1602, 1860
4131, 659, 341, 561, 1617
4132, 1422, 1379, 1859, 1614
4133, 1431, 1638, 1409, 1746
4134, 866, 1319, 1086, 1839
4135, 1589, 754, 1758, 749
4136, 395, 1641, 594, 595
4137, 230, 338, 229, 1488
4138, 1265, 1287, 1515, 1798
4139, 1544, 1353, 1240, 1214
4140, 1272, 1741, 893, 891
4141, 1263, 1487, 968, 1868
4142, 1687, 1680, 785, 790
4143, 414, 182, 565, 1778
4144, 847, 1195, 827, 1788
4145, 1503, 1586, 1378, 1807
4146, 1202, 1591, 896, 1704
4147, 427, 194, 556, 1597
4148, 861, 1290, 1840, 1850
4149, 150, 148, 1499, 1898
4150, 238, 534, 328, 1609
4151, 115, 1594, 1842, 1887
4152, 1562, 318, 438, 692
4153, 653, 560, 54, 1580
4154, 998, 1027, 1028, 1478
4155, 1456, 1783, 1462, 1804
4156, 1428, 765, 767, 763
4157, 972, 1100, 1528, 1693
4158, 1434, 1569, 1412, 1743
4159, 1347, 1486, 1113, 1775
4160, 172, 174, 221, 1573
4161, 750, 1443, 1792, 1809
4162, 1526, 1533, 1405, 1605
4163, 567, 1556, 391, 1625
4164, 1468, 1688, 345, 1908
4165, 1241, 1440, 1321, 1719
4166, 1407, 1486, 1781, 1798
4167, 1409, 1197, 1362, 757
4168, 1224, 1297, 1542, 1825
4169, 1409, 1197, 757, 1431
4170, 444, 536, 395, 1526
4171, 542, 643, 537, 1464
4172, 1082, 1269, 1300, 1514
4173, 294, 1599, 296, 1833
4174, 303, 302, 301, 1500
4175, 1520, 1416, 1640, 1867
4176, 307, 1618, 580, 1833
4177, 1450, 1466, 1718, 1863
4178, 1045, 1059, 1047, 1786
4179, 1022, 1021, 1328, 1607
4180, 1038, 1056, 1238, 1843
4181, 104, 1605, 579, 84
4182, 695, 332, 484, 1505
4183, 1527, 1651, 1394, 1826
4184, 1400, 1699, 1552, 1730
4185, 49, 687, 34, 1562
4186, 712, 4, 1251, 1482
4187, 1328, 1011, 1020, 1607
4188, 281, 279, 1567, 1791
4189, 998, 1478, 1028, 1804
4190, 722, 1713, 1184, 1827
4191, 1263, 968, 775, 1868
4192, 1523, 1616, 1393, 1795
4193, 10, 1227, 9, 1579
4194, 1103, 1124, 1616, 1707
4195, 722, 1713, 723, 1184
4196, 726, 723, 725, 1748
4197, 1431, 1697, 1501, 1918
4198, 1870, 1382, 1476, 1679
4199, 486, 1838, 1722, 1903
4200, 774, 772, 773, 1868
4201, 1541, 1624, 1481, 1889
4202, 1412, 1587, 1523, 1658
4203, 415, 1736, 1610, 1766
4204, 672, 507, 112, 1556
4205, 1437, 1749, 1680, 1782
4206, 223, 222, 182, 1855
4207, 42, 41, 1563, 1629
4208, 1189, 2, 1482, 1639
4209, 889, 1517, 1326, 1741
4210, 403, 404, 1541, 1585
4211, 589, 1883, 1474, 1884
4212, 92, 90, 91, 1751
4213, 1422, 1379, 1614, 1613
4214, 1398, 1535, 1534, 1687
4215, 1469, 1754, 1411, 1839
4216, 517, 106, 245, 1816
4217, 1724, 1887, 1594, 1424
4218, 1263, 968, 1487, 1881
4219, 544, 542, 1646, 1787
4220, 368, 152, 147, 1585
4221, 1485, 1673, 312, 1763
4222, 397, 444, 620, 1655
4223, 1662, 1748, 1487, 1770
4224, 1040, 1525, 1843, 1876
4225, 1386, 1511, 1681, 1778
4226, 962, 1082, 938, 1542
4227, 113, 1481, 614, 1888
4228, 56, 1450, 608, 1508
4229, 1594, 1417, 1724, 1912
4230, 159, 1624, 593, 1744
4231, 1381, 1608, 1576, 1872
4232, 1402, 1448, 1713, 1827
4233, 492, 196, 493, 1705
4234, 362, 276, 525, 1576
4235, 1432, 1589, 1565, 1690
4236, 1376, 1615, 1521, 1831
4237, 670, 169, 496, 1522
4238, 1050, 1478, 1042, 1876
4239, 1793, 748, 747, 1753
4240, 1381, 1728, 1677, 1836
4241, 1305, 791, 1217, 1881
4242, 181, 182, 183, 1681
4243, 1359, 870, 1151, 1548
4244, 844, 846, 845, 1824
4245, 1512, 1616, 1393, 1658
4246, 1412, 1616, 1512, 1658
4247, 1512, 1385, 1616, 1803
4248, 1402, 1448, 1827, 1741
4249, 1066, 1042, 1050, 1478
4250, 943, 1637, 1204, 1638
4251, 3, 712, 1189, 1482
4252, 1539, 360, 424, 619
4253, 1397, 1573, 1612, 1875
4254, 308, 307, 299, 1833
4255, 154, 1536, 613, 1898
4256, 383, 300, 590, 1506
4257, 908, 905, 907, 1540
4258, 859, 1840, 1442, 1850
4259, 1011, 1010, 1020, 1607
4260, 1399, 1662, 1487, 1770
4261, 1481, 1816, 1541, 1888
4262, 1541, 1816, 1493, 1888
4263, 1520, 1572, 1372, 1853
4264, 589, 1474, 1722, 1884
4265, 1573, 1612, 478, 1897
4266, 485, 214, 1536, 1762
4267, 961, 1782, 1856, 740
4268, 1012, 936, 801, 1565
4269, 410, 1633, 642, 411
4270, 487, 1838, 486, 1903
4271, 1103, 1295, 953, 1726
4272, 1398, 1772, 1739, 1895
4273, 443, 259, 272, 1695
4274, 1048, 1524, 1060, 1876
4275, 1161, 954, 1660, 1707
4276, 961, 1782, 740, 959
4277, 1616, 1385, 1512, 1707
4278, 1393, 1707, 1471, 1726
4279, 1418, 1577, 1510, 1717
4280, 1796, 1742, 1145, 1457
4281, 1560, 1823, 910, 1885
4282, 433, 388, 432, 1520
4283, 1362, 1409, 757, 1252
4284, 1052, 1051, 1462, 1783
4285, 1433, 1428, 1711, 1806
4286, 44, 512, 1516, 1790
4287, 908, 909, 957, 1540
4288, 611, 466, 1657, 1677
4289, 1422, 1379, 1613, 1750
4290, 193, 617, 556, 1489
4291, 645, 345, 409, 1468
4292, 312, 127, 1485, 1763
4293, 1089, 1150, 1502, 1684
4294, 1530, 674, 1620, 217
4295, 827, 825, 824, 1473
4296, 316, 270, 1588, 1837
4297, 45, 1555, 1602, 330
4298, 1710, 1898, 1499, 1906
4299, 579, 1663, 502, 1852
4300, 635, 492, 1582, 1705
4301, 18, 1664, 19, 1665
4302, 772, 769, 1622, 1815
4303, 606, 57, 31, 1504
4304, 1058, 1035, 1037, 1843
4305, 94, 1521, 1615, 1751
4306, 1073, 1668, 1193, 1729
4307, 983, 1215, 1358, 1742
4308, 561, 1617, 615, 1763
4309, 27, 28, 1057, 1636
4310, 1440, 1589, 1565, 1753
4311, 588, 127, 1763, 1773
4312, 1796, 1145, 1742, 843
4313, 621, 232, 423, 1461
4314, 454, 1493, 453, 1888
4315, 196, 619, 493, 1705
4316, 277, 1606, 244, 1627
4317, 341, 615, 561, 1617
4318, 994, 1085, 1084, 1729
4319, 1395, 1654, 1617, 1737
4320, 1516, 315, 1675, 1837
4321, 1667, 1668, 1073, 1729
4322, 1041, 1525, 1040, 1876
4323, 1290, 1291, 862, 1769
4324, 1304, 1800, 1473, 1896
4325, 43, 20, 19, 1664
4326, 1372, 1465, 1640, 1784
4327, 1688, 1546, 363, 1908
4328, 1387, 1570, 1539, 1855
4329, 1353, 1253, 786, 1717
4330, 1170, 1742, 1459, 1206
4331, 1456, 1809, 1671, 1904
4332, 144, 621, 392, 1634
4333, 1039, 1525, 1037, 1843
4334, 1231, 1525, 1119, 1843
4335, 242, 684, 160, 1557
4336, 180, 197, 177, 1612
4337, 944, 885, 942, 1548
4338, 939, 860, 974, 1682
4339, 1116, 1645, 738, 1764
4340, 1565, 1753, 1589, 1758
4341, 1433, 1725, 1622, 1815
4342, 651, 419, 1666, 1675
4343, 1158, 1517, 724, 1827
4344, 485, 535, 214, 1762
4345, 177, 1612, 174, 1875
4346, 559, 674, 217, 1620
4347, 1400, 1656, 1602, 1860
4348, 1503, 697, 1586, 1807
4349, 26, 700, 1507, 1636
4350, 1141, 1259, 1823, 1885
4351, 204, 216, 563, 1894
4352, 928, 1224, 1297, 1542
4353, 1433, 1815, 1622, 1829
4354, 1170, 1742, 1206, 983
4355, 591, 271, 528, 1877
4356, 1346, 1228, 842, 1808
4357, 1499, 1554, 1392, 1893
4358, 10, 1884, 47, 1722
4359, 1601, 1814, 1434, 1824
4360, 1503, 697, 1807, 636
4361, 1379, 1492, 1750, 1859
4362, 1393, 1432, 1690, 1589
4363, 1611, 1735, 170, 1813
4364, 1511, 1571, 1397, 1875
4365, 939, 1185, 1283, 1682
4366, 1002, 1223, 1003, 1501
4367, 1498, 1332, 1006, 1800
4368, 884, 1528, 883, 971
4369, 353, 9, 1834, 1884
4370, 1167, 1171, 1552, 1892
4371, 627, 2, 1, 1869
4372, 739, 1513, 1107, 1650
4373, 609, 696, 99, 1496
4374, 327, 305, 303, 1495
4375, 1409, 1638, 1637, 1760
4376, 887, 946, 1092, 1528
4377, 1486, 1540, 1775, 1802
4378, 217, 539, 184, 1530
4379, 443, 573, 122, 1694
4380, 342, 568, 1677, 1728
4381, 42, 1566, 41, 1629
4382, 151, 449, 541, 1799
4383, 1429, 1708, 1544, 1910
4384, 689, 530, 103, 1643
4385, 127, 124, 312, 1485
4386, 1904, 1890, 1236, 1909
4387, 1881, 1680, 1768, 791
4388, 396, 1642, 1558, 1854
4389, 403, 145, 152, 1585
4390, 1510, 1702, 1411, 1729
4391, 1194, 1190, 985, 1553
4392, 294, 297, 580, 1833
4393, 454, 468, 334, 1493
4394, 397, 282, 1558, 1897
4395, 1398, 1534, 1535, 1873
4396, 784, 1581, 1217, 1680
4397, 634, 550, 3, 1482
4398, 302, 477, 298, 1836
4399, 1210, 1403, 725, 1770
4400, 195, 617, 616, 1797
4401, 1060, 1292, 1235, 1863
4402, 1221, 1759, 835, 1864
4403, 172, 1573, 221, 1735
4404, 1417, 1559, 1736, 1766
4405, 1194, 985, 1233, 1553
4406, 945, 1097, 947, 1491
4407, 1398, 1873, 1851, 1886
4408, 669, 624, 129, 1652
4409, 1413, 1700, 1539, 1914
4410, 501, 1870, 412, 1476
4411, 1418, 1702, 1510, 1729
4412, 997, 1631, 709, 1857
4413, 433, 1670, 548, 1853
4414, 1026, 1027, 998, 1818
4415, 1417, 1766, 1736, 1871
4416, 1130, 995, 1131, 1708
4417, 1177, 1178, 1671, 1777
4418, 1511, 1423, 1571, 1778
4419, 18, 17, 1651, 1794
4420, 1515, 1781, 1486, 1798
4421, 637, 639, 135, 1858
4422, 1551, 1472, 399, 1543
4423, 604, 1608, 203, 1715
4424, 612, 1536, 1670, 1762
4425, 1072, 1183, 1312, 1821
4426, 1456, 1177, 1671, 1777
4427, 172, 170, 171, 1611
4428, 1125, 1525, 1780, 1818
4429, 814, 813, 812, 1734
4430, 396, 1558, 347, 1854
4431, 1809, 1890, 1904, 1452
4432, 422, 504, 233, 1621
4433, 1479, 1454, 1630, 1716
4434, 652, 151, 445, 1561
4435, 954, 1707, 1103, 1726
4436, 587, 469, 566, 1556
4437, 1166, 1037, 1039, 1828
4438, 1551, 399, 1472, 284
4439, 57, 58, 51, 1505
4440, 1926, 259, 256, 526
4441, 1386, 1688, 1506, 1779
4442, 94, 1593, 1521, 1751
4443, 15, 1527, 1647, 498
4444, 154, 449, 612, 1670
4445, 1420, 1773, 1733, 1849
4446, 1113, 1111, 1112, 1540
4447, 1626, 1754, 1513, 1183
4448, 1536, 1670, 1376, 1709
4449, 480, 340, 1797, 1907
4450, 418, 391, 346, 1625
4451, 202, 1537, 239, 1830
4452, 1498, 1332, 1800, 1721
4453, 1471, 1660, 1432, 1726
4454, 212, 1576, 1894, 1872
4455, 1327, 1549, 1143, 1774
4456, 1768, 1680, 1881, 1403
4457, 1052, 1777, 1177, 1783
4458, 781, 1117, 782, 1703
4459, 277, 475, 276, 1537
4460, 1409, 1746, 1638, 1760
4461, 530, 1643, 421, 1733
4462, 143, 142, 144, 1634
4463, 752, 1452, 1809, 1338
4464, 1457, 1592, 1569, 1743
4465, 1089, 1711, 1502, 1829
4466, 1220, 1835, 1890, 1864
4467, 1454, 1712, 1572, 1752
4468, 996, 1282, 1310, 1631
4469, 529, 100, 1593, 1817
4470, 1118, 865, 844, 1601
4471, 1292, 788, 1235, 1507
4472, 1040, 1238, 1048, 1524
4473, 1925, 881, 1314, 1548
4474, 73, 85, 1605, 1643
4475, 372, 373, 371, 1745
4476, 1386, 1484, 1779, 1819
4477, 1441, 1665, 1574, 1805
4478, 1922, 937, 955, 929
4479, 1565, 1589, 1432, 1758
4480, 553, 437, 479, 1657
4481, 1053, 1052, 1051, 1462
4482, 138, 139, 159, 1724
4483, 1347, 1323, 1113, 1486
4484, 947, 948, 946, 1693
4485, 1487, 1768, 1881, 1403
4486, 892, 890, 1768, 1023
4487, 796, 804, 1587, 1772
4488, 1702, 1019, 1096, 1240
4489, 195, 556, 617, 1489
4490, 381, 375, 377, 1476
4491, 1407, 1781, 1486, 1802
4492, 313, 1537, 459, 1627
4493, 1421, 1605, 1526, 1655
4494, 753, 748, 746, 1793
4495, 1453, 1375, 1676, 1830
4496, 37, 1626, 1275, 1811
4497, 453, 324, 107, 1493
4498, 1702, 1096, 1019, 1545
4499, 1567, 283, 278, 279
4500, 1188, 806, 803, 1512
4501, 1503, 697, 636, 88
4502, 173, 176, 677, 1571
4503, 779, 1581, 784, 1703
4504, 867, 868, 852, 1477
4505, 623, 304, 1878, 1915
4506, 215, 227, 1519, 1822
4507, 1679, 492, 372, 384
4508, 83, 1533, 1605, 1852
4509, 468, 1493, 454, 1888
4510, 1441, 1590, 1504, 1905
4511, 1768, 1881, 791, 1305
4512, 1594, 1724, 1624, 1912
4513, 1393, 1589, 1534, 1795
4514, 1829, 1899, 1785, 1427
4515, 1559, 1644, 1420, 1766
4516, 1680, 1895, 790, 1687
4517, 289, 450, 1844, 602
4518, 252, 254, 460, 1926
4519, 173, 1571, 677, 1875
4520, 74, 72, 1654, 1733
4521, 970, 1365, 33, 1590
4522, 67, 660, 231, 1737
4523, 87, 1586, 1767, 1865
4524, 1022, 6, 1021, 1549
4525, 277, 656, 475, 1537
4526, 1132, 1407, 1191, 1808
4527, 678, 484, 332, 1505
4528, 290, 602, 289, 1844
4529, 609, 1496, 99, 1848
4530, 407, 1482, 560, 1902
4531, 358, 351, 1883, 1902
4532, 762, 1171, 1286, 1552
4533, 1379, 1611, 1522, 1813
4534, 612, 613, 1536, 1762
4535, 81, 78, 1924, 1928
4536, 23, 1450, 52, 632
4537, 865, 846, 844, 1824
4538, 1549, 1639, 1406, 1774
4539, 405, 229, 482, 1519
4540, 1544, 1353, 1214, 1720
4541, 23, 52, 1450, 22
4542, 714, 999, 1699, 1806
4543, 412, 379, 411, 1870
4544, 718, 717, 1662, 1725
4545, 1518, 1630, 1475, 1878
4546, 362, 1576, 552, 1732
4547, 145, 1634, 1893, 1585
4548, 161, 1898, 1710, 1906
4549, 485, 1536, 613, 1762
4550, 113, 453, 109, 1888
4551, 212, 1576, 1872, 554
4552, 752, 1443, 1276, 750
4553, 1919, 1285, 1281, 964
4554, 500, 502, 579, 1663
4555, 8, 1834, 59, 353
4556, 724, 1517, 1160, 1731
4557, 854, 783, 853, 1899
4558, 604, 226, 207, 1608
4559, 562, 591, 408, 1877
4560, 869, 1359, 1152, 1548
4561, 1670, 1784, 1470, 1853
4562, 1416, 1627, 1606, 1867
4563, 376, 1679, 1846, 1870
4564, 306, 339, 343, 1657
4565, 673, 134, 133, 1559
4566, 1078, 1591, 915, 1704
4567, 609, 1740, 1496, 1848
4568, 1392, 1648, 1493, 1761
4569, 1549, 1604, 1406, 1639
4570, 1482, 1604, 1549, 1639
4571, 1763, 659, 1673, 312
4572, 615, 1763, 1617, 1901
4573, 1863, 1632, 1162, 1060
4574, 1081, 1357, 1270, 1856
4575, 790, 1895, 1680, 789
4576, 1607, 1774, 1549, 1834
4577, 978, 991, 1075, 1637
4578, 1393, 1432, 1589, 1726
4579, 915, 1591, 1202, 1704
4580, 364, 1666, 1546, 1841
4581, 478, 1612, 197, 1791
4582, 718, 716, 717, 1725
4583, 804, 1198, 1199, 1592
4584, 1672, 1112, 1228, 1009
4585, 1407, 1467, 1802, 1775
4586, 1520, 1784, 1670, 1853
4587, 531, 1538, 50, 1837
4588, 1375, 1676, 1480, 1381
4589, 555, 1578, 331, 1838
4590, 1672, 1228, 1112, 1467
4591, 1389, 1752, 1551, 1845
4592, 448, 1564, 445, 1799
4593, 324, 105, 107, 1493
4594, 1527, 15, 16, 654
4595, 455, 454, 334, 1493
4596, 910, 1560, 1250, 1823
4597, 95, 1593, 100, 1761
4598, 608, 1450, 52, 1880
4599, 1427, 1662, 1622, 1725
4600, 1084, 1138, 744, 1623
4601, 409, 1468, 345, 1908
4602, 41, 1841, 1629, 366
4603, 1230, 1125, 1525, 1780
4604, 459, 1537, 277, 1627
4605, 534, 179, 581, 1750
4606, 716, 714, 1725, 1820
4607, 147, 1585, 145, 1893
4608, 811, 1006, 836, 1498
4609, 1825, 1367, 1922, 924
4610, 268, 1538, 50, 36
4611, 1580, 1700, 1425, 1869
4612, 1077, 1707, 1616, 1124
4613, 1805, 1307, 1665, 1708
4614, 1474, 1600, 1425, 1883
4615, 1254, 1535, 1873, 1851
4616, 1025, 1161, 1707, 1361
4617, 450, 413, 583, 1584
4618, 752, 1452, 1338, 1223
4619, 102, 90, 284, 1568
4620, 944, 1431, 1005, 1918
4621, 285, 286, 1497, 1596
4622, 1733, 1773, 1485, 1849
4623, 1384, 1475, 1584, 1844
4624, 1414, 1714, 1682, 1764
4625, 749, 750, 1758, 1792
4626, 1249, 979, 1788, 1789
4627, 168, 167, 169, 1813
4628, 1279, 1523, 1691, 1886
4629, 1395, 1763, 1652, 1901
4630, 1671, 1792, 1443, 1809
4631, 144, 392, 146, 1893
4632, 503, 99, 1496, 1848
4633, 381, 377, 501, 1476
4634, 773, 775, 774, 1868
4635, 653, 425, 560, 1580
4636, 518, 431, 1575, 355
4637, 1072, 975, 1018, 1821
4638, 895, 897, 899, 1591
4639, 1499, 1709, 150, 1898
4640, 119, 1547, 80, 473
4641, 1141, 1823, 1560, 1885
4642, 628, 1390, 89, 1767
4643, 378, 377, 376, 1870
4644, 1170, 818, 1206, 1832
4645, 1090, 1345, 857, 1812
4646, 20, 357, 21, 1718
4647, 127, 1485, 1763, 1773
4648, 21, 369, 22, 1718
4649, 1062, 949, 1693, 1801
4650, 210, 1657, 1677, 611
4651, 1654, 1733, 1395, 1763
4652, 224, 349, 350, 1600
4653, 1456, 1463, 1792, 1689
4654, 1433, 1428, 1806, 1699
4655, 1387, 1629, 1563, 1841
4656, 918, 923, 1157, 1649
4657, 1433, 1428, 1699, 1730
4658, 1502, 1142, 1823, 1913
4659, 1128, 1835, 1501, 1890
4660, 715, 714, 1656, 1725
4661, 881, 1548, 885, 1314
4662, 32, 438, 33, 1590
4663, 1456, 1463, 1689, 1777
4664, 1456, 1463, 1777, 1671
4665, 1462, 1783, 1632, 1804
4666, 1187, 815, 820, 1473
4667, 442, 1673, 647, 1547
4668, 1455, 737, 758, 1626
4669, 837, 1746, 834, 1760
4670, 1434, 1743, 1412, 1832
4671, 285, 1551, 284, 1915
4672, 1383, 1667, 1510, 1683
4673, 1642, 1854, 637, 1858
4674, 8, 59, 1834, 7
4675, 1375, 1576, 1495, 1381
4676, 1638, 1746, 1477, 1760
4677, 1417, 1644, 1559, 1766
4678, 996, 997, 988, 1804
4679, 1402, 1731, 1517, 1827
4680, 563, 656, 1537, 1894
4681, 1010, 1823, 940, 912
4682, 1401, 1493, 1816, 1817
4683, 876, 1092, 1218, 1801
4684, 1337, 1338, 1028, 1780
4685, 1770, 725, 721, 1748
4686, 1391, 1675, 1516, 1891
4687, 760, 711, 1327, 1639
4688, 1536, 1710, 158, 1898
4689, 230, 532, 338, 1488
4690, 463, 462, 74, 1485
4691, 1039, 1525, 1041, 1828
4692, 1028, 1338, 1126, 1804
4693, 1632, 1783, 1478, 1804
4694, 466, 436, 611, 1657
4695, 1539, 360, 619, 1914
4696, 406, 648, 1556, 1900
4697, 1449, 1720, 1595, 1882
4698, 427, 556, 506, 1917
4699, 958, 1192, 957, 1765
4700, 1013, 936, 1565, 1866
4701, 1462, 1723, 1631, 1862
4702, 1631, 1723, 1415, 1862
4703, 56, 608, 317, 1508
4704, 301, 296, 564, 1599
4705, 1180, 1929, 929, 925
4706, 1455, 758, 737, 1273
4707, 1427, 1725, 1622, 1820
4708, 1416, 1670, 1520, 1784
4709, 571, 1614, 49, 1859
4710, 1107, 1312, 1183, 1513
4711, 1425, 1604, 1482, 1639
4712, 868, 872, 870, 1661
4713, 1485, 1733, 1654, 1763
4714, 150, 153, 148, 1898
4715, 919, 1929, 924, 1927
4716, 1312, 1821, 1513, 1892
4717, 1381, 1677, 1657, 1836
4718, 972, 1693, 1528, 1801
4719, 206, 204, 1608, 1894
4720, 1465, 1740, 483, 1879
4721, 199, 1480, 202, 1830
4722, 1419, 1383, 1628, 1577
4723, 1167, 1552, 764, 1730
4724, 571, 268, 1614, 1911
4725, 743, 1085, 1211, 1577
4726, 636, 1497, 1503, 102
4727, 1494, 1644, 1420, 1773
4728, 1386, 1546, 1688, 1908
4729, 1092, 876, 1330, 1528
4730, 781, 779, 784, 1703
4731, 1272, 1741, 891, 1326
4732, 847, 827, 845, 1814
4733, 785, 781, 784, 1703
4734, 1159, 1517, 1088, 1885
4735, 942, 1431, 1363, 944
4736, 1503, 697, 88, 1586
4737, 526, 390, 460, 1695
4738, 1664, 422, 357, 1847
4739, 1550, 1377, 1564, 1799
4740, 879, 878, 880, 1661
4741, 1848, 1376, 1519, 1740
4742, 324, 546, 105, 1761
4743, 1344, 1211, 742, 1577
4744, 417, 416, 1842, 1871
4745, 570, 418, 346, 1744
4746, 237, 678, 332, 1505
4747, 1456, 1792, 1671, 1809
4748, 543, 544, 542, 1646
4749, 739, 1312, 1107, 1513
4750, 1306, 1619, 16, 1794
4751, 1050, 1632, 1051, 1783
4752, 1723, 1738, 1449, 1708
4753, 1525, 1818, 1119, 1843
4754, 87, 86, 85, 1586
4755, 934, 1067, 1165, 1542
4756, 110, 638, 694, 1625
4757, 1292, 1048, 1238, 1524
4758, 93, 1532, 529, 1593
4759, 999, 1227, 1699, 1806
4760, 452, 681, 600, 1492
4761, 1456, 1463, 1671, 1792
4762, 10, 1884, 1722, 1579
4763, 347, 396, 282, 1558
4764, 1576, 1872, 1608, 1894
4765, 154, 612, 613, 1536
4766, 482, 1740, 1519, 1879
4767, 221, 595, 527, 1735
4768, 1026, 998, 997, 1857
4769, 1125, 1119, 1525, 1818
4770, 853, 1560, 888, 1899
4771, 1297, 1850, 864, 920
4772, 1053, 1055, 1738, 1862
4773, 1143, 1607, 1207, 1774
4774, 1763, 659, 312, 561
4775, 1263, 771, 1785, 1868
4776, 462, 74, 1485, 1733
4777, 1053, 1462, 1051, 1862
4778, 1177, 1349, 1015, 1671
4779, 1669, 13, 1176, 703
4780, 111, 418, 614, 1625
4781, 1465, 483, 1740, 1615
4782, 1406, 1428, 1552, 1579
4783, 1519, 1740, 482, 1848
4784, 705, 713, 11, 1699
4785, 379, 377, 378, 1870
4786, 1045, 1490, 1127, 1786
4787, 1342, 1140, 1268, 1684
4788, 1653, 1863, 1106, 1905
4789, 64, 1698, 63, 1861
4790, 1406, 1428, 1774, 1552
4791, 945, 887, 933, 1491
4792, 1304, 1006, 1800, 1896
4793, 588, 128, 127, 1773
4794, 1553, 1299, 832, 831
4795, 248, 242, 241, 1556
4796, 420, 1508, 1877, 528
4797, 730, 727, 1628, 1851
4798, 1235, 788, 29, 1507
4799, 1163, 1054, 1106, 1653
4800, 1101, 1098, 1032, 1507
4801, 12, 1602, 1176, 1656
4802, 399, 446, 284, 1915
4803, 1271, 1167, 1730, 1821
4804, 703, 1071, 1176, 1668
4805, 200, 559, 188, 1620
4806, 203, 202, 199, 1480
4807, 1922, 937, 929, 926
4808, 1857, 1876, 1478, 1632
4809, 71, 1533, 452, 1737
4810, 771, 772, 1622, 1868
4811, 883, 1093, 972, 1801
4812, 1405, 1526, 1605, 1655
4813, 1125, 1780, 1027, 1818
4814, 781, 785, 1117, 1703
4815, 42, 367, 666, 1563
4816, 574, 1888, 614, 1889
4817, 668, 498, 15, 1647
4818, 571, 269, 268, 1911
4819, 1397, 1735, 1573, 1875
4820, 892, 891, 893, 1741
4821, 1143, 1549, 712, 710
4822, 77, 1924, 78, 76
4823, 3, 2, 634, 1482
4824, 676, 609, 99, 1848
4825, 1073, 1399, 1071, 1668
4826, 731, 1739, 1851, 1886
4827, 793, 792, 794, 1772
4828, 134, 673, 514, 1559
4829, 1357, 1081, 1169, 1827
4830, 14, 15, 1138, 1669
4831, 167, 496, 1522, 1826
4832, 1198, 1743, 1592, 932
4833, 1523, 1795, 1534, 1873
4834, 509, 1413, 601, 410
4835, 572, 578, 344, 1715
4836, 479, 230, 321, 1732
4837, 1863, 1632, 1060, 1466
4838, 1659, 1800, 1498, 1789
4839, 1769, 1291, 1099, 1649
4840, 903, 1280, 930, 1672
4841, 266, 538, 271, 1787
4842, 1432, 1660, 1471, 1759
4843, 655, 1580, 435, 1846
4844, 477, 568, 1728, 1836
4845, 352, 1509, 487, 1903
4846, 239, 459, 313, 1537
4847, 612, 1670, 432, 1762
4848, 660, 71, 452, 1737
4849, 1045, 1046, 1127, 1490
4850, 1298, 1116, 1115, 1764
4851, 15, 744, 1138, 1619
4852, 1486, 1781, 1515, 1856
4853, 1682, 1714, 1446, 1764
4854, 1395, 1696, 1617, 1901
4855, 15, 1527, 498, 654
4856, 158, 485, 1536, 1898
4857, 1134, 1192, 1765, 1769
4858, 771, 773, 772, 1868
4859, 391, 265, 346, 1556
4860, 94, 1593, 1751, 93
4861, 536, 1696, 1526, 1901
4862, 735, 1691, 1316, 1886
4863, 1520, 1640, 1416, 1784
4864, 1328, 1020, 1022, 1607
4865, 378, 376, 1846, 1870
4866, 302, 298, 301, 1500
4867, 474, 1610, 415, 1736
4868, 1487, 1622, 1662, 1399
4869, 1325, 1068, 1214, 1720
4870, 1471, 1707, 1660, 1726
4871, 646, 578, 428, 1715
4872, 84, 579, 83, 1605
4873, 1117, 1133, 782, 1719
4874, 566, 1556, 507, 1900
4875, 424, 619, 523, 1539
4876, 174, 177, 478, 1612
4877, 406, 587, 515, 1900
4878, 1565, 1753, 1671, 1866
4879, 154, 613, 155, 1898
4880, 42, 1563, 666, 1869
4881, 1296, 1560, 1141, 1913
4882, 1374, 1752, 1483, 1845
4883, 416, 1766, 336, 1842
4884, 1199, 798, 1587, 1658
4885, 171, 170, 169, 1611
4886, 449, 548, 433, 1670
4887, 1407, 1437, 1635, 1798
4888, 814, 1832, 1205, 818
4889, 1186, 1030, 1185, 1691
4890, 332, 235, 237, 1505
4891, 647, 690, 70, 1547
4892, 1014, 1178, 1209, 1866
4893, 1541, 1888, 520, 1889
4894, 1291, 1290, 864, 1850
4895, 1031, 1818, 1524, 1843
4896, 338, 532, 494, 1879
4897, 245, 1532, 596, 1871
4898, 280, 1791, 282, 1897
4899, 111, 694, 638, 1625
4900, 943, 971, 1144, 1477
4901, 1424, 1624, 1594, 1724
4902, 834, 837, 1368, 1746
4903, 502, 323, 681, 1852
4904, 863, 921, 920, 1850
4905, 724, 1160, 1274, 1731
4906, 1385, 1789, 1788, 1800
4907, 967, 1535, 1254, 745
4908, 1419, 1383, 1577, 1717
4909, 852, 1746, 837, 1760
4910, 1747, 1609, 1755, 1438
4911, 1747, 1609, 1438, 1706
4912, 1144, 1204, 943, 1637
4913, 90, 102, 88, 1568
4914, 1031, 1524, 1818, 1857
4915, 1407, 1437, 1798, 1781
4916, 1407, 1437, 1781, 1645
4917, 1115, 1116, 738, 1764
4918, 886, 933, 887, 1874
4919, 1300, 1446, 842, 1514
4920, 1483, 1389, 1692, 1845
4921, 108, 517, 115, 1594
4922, 1260, 1212, 1029, 1812
4923, 1496, 1648, 1392, 1761
4924, 1038, 1036, 1056, 1843
4925, 89, 1390, 91, 1865
4926, 342, 568, 551, 1677
4927, 242, 248, 251, 1900
4928, 1498, 1659, 1471, 1721
4929, 615, 1617, 394, 1901
4930, 972, 1329, 1100, 1693
4931, 1398, 1687, 1772, 1895
4932, 1136, 736, 1523, 1795
4933, 1446, 1407, 1765, 1764
4934, 908, 1280, 905, 1540
4935, 242, 1556, 248, 1900
4936, 1032, 1031, 1524, 1843
4937, 261, 385, 537, 1603
4938, 1407, 1437, 1645, 1635
4939, 273, 699, 462, 1849
4940, 292, 1518, 1844, 1878
4941, 1337, 1223, 1338, 1452
4942, 1049, 1162, 1051, 1632
4943, 1324, 1290, 862, 1769
4944, 420, 1508, 528, 55
4945, 664, 459, 277, 1627
4946, 977, 831, 829, 1553
4947, 1060, 1048, 1292, 1524
4948, 460, 390, 132, 1695
4949, 482, 405, 1519, 1848
4950, 710, 712, 1251, 1549
4951, 1415, 1708, 1574, 1910
4952, 397, 1655, 620, 1897
4953, 244, 1606, 243, 1822
4954, 85, 689, 103, 1643
4955, 1460, 1417, 1724, 1842
4956, 363, 345, 1688, 1908
4957, 1289, 1334, 1110, 1776
4958, 1553, 832, 1299, 1491
4959, 496, 497, 489, 1578
4960, 502, 1663, 323, 1852
4961, 1042, 1041, 1040, 1876
4962, 1143, 712, 1549, 1327
4963, 1473, 1788, 1789, 1800
4964, 567, 469, 391, 1556
4965, 189, 188, 187, 1479
4966, 1416, 1670, 1536, 1762
4967, 222, 523, 183, 1570
4968, 1414, 1592, 1682, 1714
4969, 1289, 1163, 1364, 1574
4970, 223, 1855, 1531, 1903
4971, 227, 229, 405, 1519
4972, 165, 163, 164, 1621
4973, 656, 475, 1537, 1894
4974, 877, 879, 1024, 1661
4975, 327, 532, 479, 1495
4976, 103, 530, 415, 1610
4977, 767, 1607, 1200, 1684
4978, 4, 1482, 5, 1251
4979, 426, 244, 535, 1762
4980, 1224, 965, 1061, 1825
4981, 1083, 994, 1623, 1708
4982, 332, 235, 1505, 1847
4983, 1624, 1744, 1481, 1889
4984, 4, 5, 1482, 625
4985, 1380, 1474, 1406, 1884
4986, 1406, 1474, 1380, 1566
4987, 167, 691, 496, 1826
4988, 538, 58, 398, 1575
4989, 1759, 1368, 1243, 835
4990, 700, 1057, 1056, 1507
4991, 41, 1841, 366, 367
4992, 26, 27, 700, 1636
4993, 465, 500, 409, 1588
4994, 22, 52, 1450, 1880
4995, 1661, 1548, 1151, 870
4996, 1004, 1339, 1336, 1490
4997, 509, 1413, 410, 1846
4998, 1077, 1707, 1124, 1154
4999, 1230, 1125, 1119, 1525
5000, 40, 41, 1087, 1566
5001, 1201, 1782, 728, 1749
5002, 883, 972, 1528, 1801
5003, 1386, 1779, 1506, 1819
5004, 1746, 1759, 834, 1409
5005, 1907, 307, 1618, 580
5006, 20, 21, 1354, 1718
5007, 1579, 1699, 1400, 1860
5008, 1147, 1062, 1693, 1801
5009, 688, 434, 1679, 1846
5010, 1565, 1758, 1432, 1864
5011, 1443, 1758, 1565, 1864
5012, 739, 1107, 38, 1650
5013, 149, 1554, 541, 1709
5014, 1373, 1599, 1518, 1833
5015, 1560, 1823, 1141, 1913
5016, 163, 504, 18, 1621
5017, 248, 241, 249, 1556
5018, 294, 293, 296, 1599
5019, 1459, 1601, 1434, 1824
5020, 1907, 307, 580, 476
5021, 793, 792, 1772, 1895
5022, 282, 396, 397, 1558
5023, 1581, 1680, 1403, 1881
5024, 352, 223, 414, 1531
5025, 720, 1366, 1274, 1731
5026, 325, 385, 261, 1603
5027, 1351, 1650, 39, 1790
5028, 1659, 1660, 1471, 1707
5029, 132, 1694, 1695, 390
5030, 528, 271, 398, 1575
5031, 24, 1101, 23, 1507
5032, 31, 32, 1105, 1905
5033, 791, 784, 1217, 1680
5034, 1121, 835, 1368, 1746
5035, 1044, 1490, 1828, 1909
5036, 1126, 750, 1792, 1809
5037, 425, 653, 655, 1580
5038, 1603, 1646, 1464, 1861
5039, 116, 596, 529, 1532
5040, 306, 339, 1657, 1836
5041, 345, 645, 401, 1468
5042, 130, 654, 225, 1527
5043, 655, 435, 1580, 653
5044, 1661, 873, 1151, 1024
5045, 119, 120, 118, 1674
5046, 1010, 1823, 912, 1150
5047, 359, 1700, 351, 1902
5048, 73, 83, 71, 1533
5049, 1158, 1079, 1088, 1704
5050, 452, 1533, 83, 1852
5051, 1151, 873, 1661, 870
5052, 103, 474, 628, 1610
5053, 402, 669, 444, 1526
5054, 1039, 1040, 1525, 1843
5055, 697, 86, 1586, 1807
5056, 167, 168, 166, 1613
5057, 1263, 1248, 968, 1881
5058, 1385, 1471, 1659, 1721
5059, 1407, 1467, 1775, 1808
5060, 1407, 1467, 1808, 1765
5061, 1722, 10, 329, 649
5062, 1679, 1846, 1413, 1914
5063, 1485, 462, 1733, 1849
5064, 54, 550, 549, 1580
5065, 1252, 757, 1204, 1637
5066, 452, 681, 1492, 1852
5067, 1136, 1795, 1523, 1873
5068, 1446, 1407, 1764, 1714
5069, 210, 208, 209, 1872
5070, 1577, 742, 741, 1628
5071, 543, 641, 82, 1646
5072, 1822, 214, 535, 1762
5073, 1354, 702, 20, 1805
5074, 372, 263, 1582, 1745
5075, 1307, 704, 1266, 1665
5076, 733, 1136, 1523, 1873
5077, 792, 793, 790, 1895
5078, 749, 1589, 747, 1753
5079, 1001, 1000, 1697, 1786
5080, 779, 1350, 784, 1581
5081, 1818, 1843, 1525, 1876
5082, 963, 1757, 1351, 1790
5083, 340, 1618, 481, 1797
5084, 316, 270, 465, 1588
5085, 703, 13, 14, 1669
5086, 1750, 218, 168, 581
5087, 178, 175, 565, 1511
5088, 636, 1497, 102, 286
5089, 1405, 1605, 1533, 1852
5090, 1822, 535, 214, 219
5091, 977, 1788, 979, 1789
5092, 1498, 1637, 1445, 1760
5093, 112, 566, 469, 1556
5094, 996, 988, 987, 1689
5095, 484, 1508, 608, 1880
5096, 219, 244, 243, 1822
5097, 116, 93, 91, 1390
5098, 1394, 1613, 1522, 1826
5099, 1595, 1720, 1418, 1882
5100, 764, 1167, 1171, 1552
5101, 783, 1263, 771, 1785
5102, 1926, 259, 526, 1695
5103, 396, 510, 402, 1642
5104, 850, 1030, 952, 1569
5105, 1356, 1131, 1266, 1805
5106, 933, 1091, 1123, 1896
5107, 112, 507, 566, 1556
5108, 622, 538, 266, 1787
5109, 102, 285, 286, 1497
5110, 104, 1807, 1598, 1586
5111, 1147, 1801, 1064, 1062
5112, 450, 583, 289, 1584
5113, 529, 245, 100, 1817
5114, 1848, 1376, 1740, 1496
5115, 1532, 1736, 596, 1871
5116, 91, 1390, 93, 1751
5117, 233, 1621, 165, 1755
5118, 1049, 1060, 1632, 1876
5119, 41, 40, 366, 1629
5120, 1782, 1768, 1713, 1403
5121, 1240, 1214, 1069, 1544
5122, 314, 313, 432, 1627
5123, 67, 231, 64, 1698
5124, 1315, 721, 719, 1770
5125, 1848, 1376, 1496, 1710
5126, 570, 114, 418, 1889
5127, 742, 1535, 745, 730
5128, 1220, 1835, 1864, 835
5129, 1392, 1593, 1761, 1817
5130, 1770, 721, 725, 1315
5131, 368, 458, 152, 1585
5132, 1391, 1516, 1675, 1837
5133, 964, 1930, 1175, 1281
5134, 733, 1873, 1523, 1886
5135, 1407, 1467, 1765, 1802
5136, 116, 91, 89, 1390
5137, 1428, 1774, 1607, 1834
5138, 1592, 1412, 1569, 1743
5139, 914, 1340, 1313, 1885
5140, 952, 1569, 1030, 1803
5141, 1286, 963, 1566, 1757
5142, 1014, 1177, 1178, 1671
5143, 895, 893, 896, 1591
5144, 1453, 1520, 1640, 1867
5145, 963, 1351, 39, 1790
5146, 406, 469, 587, 1556
5147, 907, 909, 908, 1540
5148, 1272, 1741, 1326, 1704
5149, 149, 392, 393, 1554
5150, 689, 421, 530, 1643
5151, 28, 1507, 29, 788
5152, 262, 394, 341, 1617
5153, 345, 1497, 1688, 1468
5154, 387, 558, 386, 1572
5155, 1379, 1492, 1641, 1750
5156, 212, 1608, 208, 1872
5157, 191, 1716, 189, 1745
5158, 206, 216, 204, 1894
5159, 1382, 1633, 1584, 1756
5160, 884, 942, 885, 1548
5161, 84, 1605, 85, 1586
5162, 158, 155, 485, 1898
5163, 1415, 1574, 1708, 1805
5164, 953, 1164, 754, 1726
5165, 986, 748, 1689, 1792
5166, 1375, 1606, 1537, 1867
5167, 1659, 1800, 1789, 1385
5168, 1261, 1183, 1018, 1754
5169, 183, 182, 222, 1570
5170, 67, 68, 69, 1737
5171, 810, 813, 1187, 1800
5172, 1706, 600, 382, 1859
5173, 575, 278, 539, 1692
5174, 506, 1797, 481, 1917
5175, 1382, 1633, 1756, 1810
5176, 321, 553, 479, 1732
5177, 1487, 1768, 1403, 1748
5178, 164, 163, 130, 1651
5179, 90, 1568, 88, 1865
5180, 1617, 1696, 394, 1901
5181, 618, 530, 421, 1733
5182, 1606, 524, 243, 1822
5183, 1119, 1231, 1230, 1525
5184, 440, 1541, 1889, 250
5185, 1574, 1708, 1429, 1910
5186, 511, 473, 82, 1547
5187, 888, 1560, 910, 1885
5188, 889, 898, 1326, 1517
5189, 1043, 1039, 1041, 1828
5190, 944, 1001, 1000, 1697
5191, 739, 1312, 1513, 1892
5192, 215, 227, 505, 1519
5193, 87, 1767, 89, 1865
5194, 1463, 1595, 1771, 1793
5195, 103, 1610, 628, 1767
5196, 739, 1513, 1650, 1892
5197, 719, 1662, 990, 1770
5198, 1181, 1265, 1287, 1515
5199, 481, 1618, 661, 1917
5200, 948, 1693, 949, 1801
5201, 1158, 1088, 1159, 1517
5202, 1419, 1383, 1717, 1703
5203, 696, 97, 546, 1761
5204, 412, 411, 413, 1633
5205, 308, 661, 340, 1618
5206, 1747, 1609, 1706, 1422
5207, 266, 75, 622, 1787
5208, 1622, 1820, 1433, 1829
5209, 1559, 1610, 1390, 1736
5210, 1460, 1842, 1724, 1887
5211, 98, 629, 597, 1615
5212, 1132, 839, 1714, 1808
5213, 520, 404, 468, 1541
5214, 814, 1832, 818, 1601
5215, 999, 1156, 1227, 1806
5216, 70, 76, 1646, 75
5217, 1265, 1174, 1287, 1798
5218, 977, 1284, 979, 1788
5219, 686, 366, 1666, 1841
5220, 580, 1844, 1518, 1907
5221, 1427, 1820, 1622, 1829
5222, 620, 1573, 478, 1897
5223, 1111, 1113, 899, 1540
5224, 1221, 1243, 835, 1759
5225, 1433, 1806, 1502, 1820
5226, 923, 924, 927, 1825
5227, 1254, 1535, 1851, 730
5228, 693, 1568, 92, 1472
5229, 223, 1531, 352, 1903
5230, 1839, 1702, 1510, 1086
5231, 1254, 1535, 730, 745
5232, 165, 164, 166, 1613
5233, 1149, 1806, 714, 1820
5234, 1427, 1731, 1560, 1899
5235, 257, 1926, 256, 255
5236, 693, 92, 1568, 90
5237, 418, 567, 391, 1625
5238, 861, 1840, 859, 1850
5239, 1622, 1725, 1433, 1820
5240, 1161, 1252, 980, 1659
5241, 130, 691, 164, 1826
5242, 651, 316, 419, 1675
5243, 770, 1622, 769, 1829
5244, 1303, 1668, 703, 1669
5245, 936, 1012, 1013, 1565
5246, 1659, 1800, 1385, 1721
5247, 1574, 1665, 1429, 1708
5248, 1730, 1815, 1271, 1821
5249, 889, 1517, 1741, 1899
5250, 806, 1188, 809, 1512
5251, 1331, 1167, 1821, 1892
5252, 1077, 1616, 1385, 1803
5253, 130, 1527, 225, 1826
5254, 940, 1139, 941, 1823
5255, 635, 196, 492, 1705
5256, 917, 1927, 1180, 919
5257, 838, 1592, 804, 1714
5258, 1544, 1449, 1738, 1708
5259, 1747, 1609, 1422, 1755
5260, 1535, 1628, 1426, 1851
5261, 401, 645, 104, 1807
5262, 459, 656, 277, 1537
5263, 847, 1301, 1788, 1814
5264, 541, 1709, 1554, 1799
5265, 1248, 1168, 1023, 1768
5266, 1420, 1494, 1773, 1849
5267, 810, 812, 813, 1734
5268, 239, 202, 563, 1537
5269, 1515, 1713, 1448, 1856
5270, 252, 1557, 242, 1900
5271, 1038, 1238, 1040, 1843
5272, 507, 257, 1557, 354
5273, 215, 220, 227, 1822
5274, 1049, 1060, 1162, 1632
5275, 560, 407, 470, 1482
5276, 439, 387, 389, 1572
5277, 362, 554, 552, 1576
5278, 1751, 92, 1568, 1472
5279, 1105, 1364, 1106, 1905
5280, 1782, 1768, 1403, 1680
5281, 461, 132, 370, 1695
5282, 245, 596, 685, 1871
5283, 739, 1650, 1351, 1757
5284, 264, 566, 507, 1900
5285, 489, 1578, 555, 1509
5286, 1419, 1771, 1595, 1793
5287, 1196, 1052, 1177, 1783
5288, 1805, 1307, 1708, 1131
5289, 1433, 1820, 1502, 1829
5290, 1483, 1692, 1530, 1845
5291, 1201, 738, 1645, 1739
5292, 889, 1326, 891, 1741
5293, 1434, 1412, 1569, 1803
5294, 294, 580, 292, 1518
5295, 952, 1077, 1076, 1803
5296, 387, 389, 1572, 1853
5297, 1315, 1210, 725, 1770
5298, 1572, 1712, 1372, 1752
5299, 362, 243, 276, 1606
5300, 314, 432, 388, 1520
5301, 1241, 793, 795, 1687
5302, 498, 331, 497, 1647
5303, 249, 400, 346, 1744
5304, 884, 1528, 971, 1477
5305, 615, 341, 394, 1617
5306, 403, 152, 404, 1585
5307, 300, 287, 1506, 1688
5308, 1198, 1743, 932, 1146
5309, 55, 29, 28, 1636
5310, 1665, 1708, 1574, 1805
5311, 1329, 1693, 972, 1801
5312, 1671, 1753, 1463, 1866
5313, 330, 1602, 12, 1860
5314, 1029, 951, 1237, 1812
5315, 917, 1927, 919, 918
5316, 1548, 1638, 1431, 1746
5317, 1371, 765, 767, 1711
5318, 789, 792, 790, 1895
5319, 740, 1713, 1782, 1856
5320, 851, 836, 1370, 1760
5321, 755, 1362, 756, 1660
5322, 1402, 1517, 1741, 1827
5323, 512, 39, 38, 1650
5324, 1487, 1263, 1785, 1868
5325, 605, 136, 138, 1724
5326, 496, 225, 497, 1826
5327, 23, 1507, 1101, 1466
5328, 1025, 1659, 980, 1789
5329, 1148, 832, 1100, 1693
5330, 1158, 724, 1169, 1827
5331, 1172, 700, 1056, 1507
5332, 1297, 1850, 920, 1542
5333, 1014, 1013, 1671, 1866
5334, 171, 173, 172, 1611
5335, 1843, 1119, 1031, 1818
5336, 957, 1120, 908, 1672
5337, 297, 307, 580, 1833
5338, 1805, 1307, 1131, 1266
5339, 210, 1657, 611, 213
5340, 1199, 1352, 798, 1658
5341, 1044, 1043, 1041, 1828
5342, 1581, 1217, 968, 1350
5343, 1002, 1003, 1001, 1501
5344, 11, 1579, 329, 1860
5345, 206, 1608, 447, 1894
5346, 251, 248, 648, 1900
5347, 749, 750, 751, 1758
5348, 1239, 934, 1165, 1542
5349, 1398, 1851, 1739, 1886
5350, 277, 244, 426, 1627
5351, 1502, 1433, 1711, 1806
5352, 545, 1706, 382, 1747
5353, 1256, 1102, 1293, 1786
5354, 96, 94, 95, 1521
5355, 1077, 1385, 1076, 1803
5356, 76, 1928, 79, 1547
5357, 708, 1524, 1031, 1857
5358, 601, 1580, 627, 1869
5359, 357, 369, 21, 1718
5360, 1092, 874, 887, 1528
5361, 424, 224, 1600, 1855
5362, 68, 356, 69, 1654
5363, 755, 754, 751, 1758
5364, 1631, 1632, 1466, 1857
5365, 481, 661, 522, 1917
5366, 248, 249, 265, 1556
5367, 383, 1810, 491, 521
5368, 318, 34, 692, 1562
5369, 1406, 1549, 1774, 1834
5370, 292, 1518, 580, 1844
5371, 26, 25, 246, 1636
5372, 608, 484, 317, 1508
5373, 527, 1641, 218, 1813
5374, 154, 150, 1709, 1898
5375, 179, 233, 165, 1755
5376, 248, 1556, 648, 1900
5377, 1654, 1673, 1485, 1763
5378, 32, 33, 1365, 1590
5379, 711, 760, 759, 1639
5380, 1327, 1143, 1207, 1774
5381, 1441, 1718, 1653, 1905
5382, 1136, 1103, 736, 1795
5383, 1372, 1640, 1520, 1784
5384, 1080, 1088, 1079, 1704
5385, 1399, 1622, 1662, 1725
5386, 83, 452, 71, 1533
5387, 321, 228, 524, 1732
5388, 1147, 1064, 1801, 1247
5389, 547, 455, 333, 1648
5390, 873, 877, 1024, 1661
5391, 124, 125, 123, 1694
5392, 167, 496, 169, 1522
5393, 598, 159, 593, 1744
5394, 1502, 1711, 1433, 1829
5395, 1137, 960, 1270, 1856
5396, 727, 729, 1749, 1851
5397, 1176, 12, 13, 1602
5398, 612, 433, 432, 1670
5399, 1232, 1904, 1890, 1236
5400, 731, 1873, 733, 1886
5401, 1230, 1336, 1125, 1780
5402, 540, 192, 1701, 1716
5403, 2, 3, 1189, 1482
5404, 480, 1797, 1476, 1907
5405, 447, 208, 212, 1608
5406, 1786, 1059, 1256, 1320
5407, 1713, 1748, 1403, 1768
5408, 1402, 1748, 1713, 1768
5409, 303, 516, 327, 1685
5410, 1094, 1204, 757, 1638
5411, 1225, 865, 1118, 1601
5412, 1395, 1652, 1526, 1901
5413, 1613, 1750, 1379, 1813
5414, 290, 291, 292, 1878
5415, 1236, 1890, 1232, 1129
5416, 448, 445, 151, 1799
5417, 1496, 1710, 319, 1848
5418, 772, 769, 771, 1622
5419, 1709, 1799, 1470, 1831
5420, 1160, 1517, 1159, 1885
5421, 1044, 1490, 1043, 1828
5422, 749, 1164, 747, 1589
5423, 121, 124, 123, 1694
5424, 1664, 357, 422, 43
5425, 505, 227, 405, 1519
5426, 257, 1926, 255, 1900
5427, 48, 549, 550, 1580
5428, 146, 145, 144, 1893
5429, 146, 147, 145, 1893
5430, 636, 88, 102, 1503
5431, 1193, 1073, 1303, 1668
5432, 665, 1763, 615, 1901
5433, 1751, 1568, 92, 90
5434, 861, 859, 863, 1850
5435, 64, 61, 63, 1698
5436, 435, 1580, 549, 1846
5437, 714, 999, 713, 1699
5438, 569, 480, 1476, 1907
5439, 1160, 1159, 1141, 1885
5440, 986, 1689, 988, 1804
5441, 1010, 1823, 1150, 1684
5442, 497, 331, 555, 1578
5443, 387, 439, 558, 1572
5444, 478, 177, 197, 1612
5445, 1478, 1818, 1525, 1876
5446, 486, 1722, 589, 1903
5447, 1062, 973, 949, 1801
5448, 10, 1884, 1579, 9
5449, 383, 1810, 521, 1546
5450, 1839, 1411, 1019, 1754
5451, 281, 348, 347, 1854
5452, 337, 415, 530, 1766
5453, 1393, 1726, 1589, 1795
5454, 276, 244, 277, 1606
5455, 45, 13, 330, 1602
5456, 1502, 1829, 1820, 1913
5457, 1440, 1771, 1719, 1793
5458, 17, 1306, 16, 1794
5459, 1419, 1719, 1771, 1793
5460, 1490, 1047, 1786, 1045
5461, 954, 1161, 1361, 1707
5462, 364, 1546, 521, 1841
5463, 18, 17, 163, 1651
5464, 315, 651, 44, 1675
5465, 511, 473, 1547, 1673
5466, 871, 1256, 1320, 1697
5467, 260, 259, 258, 1695
5468, 1641, 1526, 1405, 595
5469, 1839, 1702, 1086, 1019
5470, 1327, 1189, 712, 1549
5471, 1594, 1724, 1417, 1842
5472, 1631, 1632, 1462, 1862
5473, 309, 311, 310, 1728
5474, 1463, 1753, 1671, 1792
5475, 1820, 1829, 1427, 1913
5476, 284, 285, 102, 1551
5477, 1142, 1141, 1823, 1913
5478, 563, 216, 656, 1894
5479, 1378, 1558, 1791, 1897
5480, 1277, 1667, 1073, 1729
5481, 205, 203, 604, 1608
5482, 367, 42, 41, 1563
5483, 1400, 1821, 1730, 1892
5484, 265, 406, 648, 1556
5485, 713, 705, 714, 1699
5486, 138, 136, 137, 1724
5487, 533, 1842, 335, 1887
5488, 1235, 1450, 30, 1863
5489, 1443, 1452, 1727, 1890
5490, 1220, 1565, 1012, 1864
5491, 809, 1065, 812, 1734
5492, 1320, 1127, 1697, 1786
5493, 124, 121, 599, 1674
5494, 35, 687, 36, 1811
5495, 752, 1452, 1223, 1727
5496, 505, 1519, 405, 1848
5497, 1595, 1211, 993, 1882
5498, 913, 941, 1259, 1823
5499, 132, 461, 460, 1695
5500, 305, 302, 303, 1836
5501, 1277, 1073, 1193, 1729
5502, 665, 588, 127, 1763
5503, 1381, 1657, 1495, 1836
5504, 399, 451, 446, 1543
5505, 1395, 1617, 1654, 1763
5506, 293, 304, 1599, 1878
5507, 759, 1087, 701, 1639
5508, 1854, 637, 396, 1642
5509, 1809, 1890, 1452, 1443
5510, 603, 327, 479, 1495
5511, 565, 677, 414, 1571
5512, 480, 476, 340, 1907
5513, 158, 485, 214, 1536
5514, 791, 1287, 1333, 1680
5515, 158, 1710, 161, 1898
5516, 549, 653, 54, 1580
5517, 528, 398, 55, 1508
5518, 1194, 1233, 826, 1553
5519, 571, 268, 49, 1614
5520, 458, 320, 334, 1648
5521, 923, 938, 1649, 1825
5522, 1111, 899, 901, 1540
5523, 31, 57, 51, 1504
5524, 1390, 1854, 1642, 1858
5525, 1019, 1545, 1261, 1754
5526, 718, 1322, 716, 1820
5527, 1352, 1188, 803, 1658
5528, 1450, 1863, 1718, 1905
5529, 115, 1842, 533, 1887
5530, 775, 1683, 774, 1868
5531, 1769, 1099, 1291, 862
5532, 461, 242, 252, 1557
5533, 1713, 1515, 1782, 1856
5534, 1718, 1863, 1653, 1905
5535, 531, 36, 50, 1538
5536, 1427, 1785, 1731, 1899
5537, 865, 1216, 846, 1824
5538, 1222, 1139, 1011, 1684
5539, 149, 541, 150, 1709
5540, 1380, 1516, 1650, 1790
5541, 888, 853, 1250, 1560
5542, 1134, 1324, 862, 1769
5543, 209, 208, 207, 1608
5544, 1289, 1070, 1163, 1574
5545, 133, 588, 624, 1652
5546, 1120, 1280, 908, 1672
5547, 946, 1017, 1092, 1801
5548, 143, 250, 141, 1541
5549, 249, 598, 400, 1744
5550, 676, 482, 609, 1848
5551, 740, 1713, 726, 1782
5552, 848, 1814, 845, 1824
5553, 1032, 1033, 1031, 1843
5554, 73, 689, 85, 1643
5555, 1600, 1700, 1425, 1902
5556, 963, 1566, 1757, 1790
5557, 1482, 1604, 1425, 1902
5558, 1199, 1188, 1352, 1658
5559, 972, 1100, 971, 1528
5560, 104, 1605, 84, 1586
5561, 1025, 980, 979, 1789
5562, 946, 948, 1017, 1801
5563, 477, 306, 568, 1836
5564, 1478, 1780, 1525, 1818
5565, 1854, 396, 637, 347
5566, 1437, 1515, 1781, 1782
5567, 672, 112, 638, 1625
5568, 414, 1571, 176, 1509
5569, 304, 564, 293, 1599
5570, 1077, 1311, 1616, 1803
5571, 666, 1563, 53, 1869
5572, 1434, 1734, 1385, 1814
5573, 425, 407, 560, 1902
5574, 682, 343, 466, 1677
5575, 706, 7, 8, 1834
5576, 28, 420, 55, 1636
5577, 224, 351, 424, 1600
5578, 49, 34, 318, 1562
5579, 1248, 1263, 1168, 1785
5580, 107, 105, 106, 1816
5581, 1400, 1730, 1552, 1892
5582, 72, 69, 74, 1654
5583, 38, 39, 1351, 1650
5584, 294, 296, 297, 1833
5585, 961, 1782, 959, 1781
5586, 1407, 1486, 1775, 1802
5587, 916, 1009, 1111, 1672
5588, 97, 95, 100, 1761
5589, 18, 1665, 704, 1794
5590, 203, 205, 204, 1608
5591, 212, 525, 447, 1894
5592, 1201, 728, 1782, 959
5593, 206, 447, 216, 1894
5594, 724, 1158, 1160, 1517
5595, 308, 340, 307, 1618
5596, 162, 319, 1710, 1848
5597, 103, 415, 474, 1610
5598, 1442, 1840, 1514, 1850
5599, 1053, 1054, 1055, 1862
5600, 1378, 1612, 1573, 1897
5601, 996, 1310, 997, 1631
5602, 389, 652, 1561, 1853
5603, 669, 536, 1526, 1901
5604, 783, 1622, 770, 1829
5605, 1159, 1160, 1158, 1517
5606, 297, 299, 307, 1833
5607, 1033, 1231, 1119, 1843
5608, 1089, 767, 1150, 1684
5609, 1028, 1027, 1125, 1780
5610, 933, 886, 1091, 1874
5611, 1499, 1496, 1710, 1906
5612, 643, 542, 431, 1787
5613, 1848, 1376, 1710, 1519
5614, 1839, 1018, 1019, 866
5615, 187, 196, 635, 1705
5616, 481, 340, 661, 1618
5617, 1734, 1512, 808, 809
5618, 1276, 1104, 1529, 1727
5619, 740, 1357, 1713, 1856
5620, 76, 79, 441, 1547
5621, 295, 585, 1844, 1907
5622, 1704, 1741, 1517, 1827
5623, 811, 833, 807, 1721
5624, 242, 461, 684, 1557
5625, 468, 404, 458, 1585
5626, 1220, 1835, 835, 1208
5627, 1402, 1517, 1731, 1899
5628, 1107, 1275, 37, 1626
5629, 1220, 1835, 1208, 1890
5630, 297, 298, 299, 1833
5631, 1659, 1800, 1721, 1498
5632, 1734, 808, 1512, 1721
5633, 330, 13, 12, 1602
5634, 167, 166, 164, 1613
5635, 120, 119, 121, 1674
5636, 494, 516, 495, 1685
5637, 95, 529, 100, 1593
5638, 1163, 1574, 1070, 1910
5639, 1515, 1437, 1781, 1798
5640, 146, 392, 149, 1893
5641, 1426, 1687, 1535, 1851
5642, 105, 1761, 100, 1817
5643, 1079, 1078, 915, 1704
5644, 1486, 1802, 1781, 1856
5645, 896, 1202, 1267, 1591
5646, 472, 1854, 1550, 1858
5647, 337, 274, 1766, 1849
5648, 596, 245, 529, 1532
5649, 1122, 743, 741, 1577
5650, 1402, 1731, 1785, 1899
5651, 1180, 917, 930, 1672
5652, 130, 17, 16, 1651
5653, 281, 280, 279, 1791
5654, 66, 65, 70, 1861
5655, 1818, 1857, 1524, 1876
5656, 1426, 1749, 1680, 1895
5657, 1624, 1724, 139, 1912
5658, 738, 1114, 1115, 1764
5659, 1907, 307, 476, 340
5660, 1895, 789, 1333, 1680
5661, 796, 797, 804, 1772
5662, 390, 443, 122, 1694
5663, 1544, 1738, 1069, 1910
5664, 265, 648, 248, 1556
5665, 1116, 961, 1802, 1226
5666, 1880, 357, 1718, 369
5667, 787, 786, 1355, 1720
5668, 650, 280, 282, 1897
5669, 1346, 1191, 1775, 1808
5670, 1437, 1749, 1739, 1895
5671, 777, 775, 968, 1683
5672, 1805, 1266, 19, 1665
5673, 342, 551, 457, 1677
5674, 603, 305, 327, 1495
5675, 779, 781, 780, 1703
5676, 1392, 1634, 1585, 1893
5677, 1241, 1117, 1687, 1719
5678, 1152, 1359, 871, 1697
5679, 949, 948, 947, 1693
5680, 1016, 1649, 1291, 1825
5681, 440, 1541, 250, 403
5682, 152, 145, 147, 1585
5683, 1348, 1201, 738, 1645
5684, 75, 266, 77, 1787
5685, 1600, 1425, 1883, 1902
5686, 739, 1650, 1757, 1892
5687, 1524, 1843, 1818, 1876
5688, 708, 1524, 1857, 1466
5689, 1437, 1680, 1749, 1895
5690, 781, 782, 780, 1703
5691, 1278, 1793, 753, 746
5692, 1606, 1627, 1537, 1867
5693, 1284, 1249, 979, 1788
5694, 1554, 1799, 1709, 1831
5695, 482, 1740, 609, 1848
5696, 1589, 1295, 967, 1795
5697, 407, 633, 1604, 1902
5698, 1895, 1333, 789, 792
5699, 1402, 1741, 1517, 1899
5700, 1229, 802, 805, 1690
5701, 1749, 1851, 1739, 1895
5702, 1195, 1284, 977, 1788
5703, 1101, 1524, 1032, 708
5704, 784, 1350, 1217, 1581
5705, 234, 179, 534, 1609
5706, 1088, 1340, 914, 1885
5707, 1589, 1295, 1795, 1726
5708, 271, 267, 266, 1787
5709, 500, 104, 645, 1598
5710, 435, 653, 549, 1580
5711, 606, 55, 57, 1508
5712, 389, 652, 467, 1561
5713, 321, 552, 553, 1732
5714, 633, 1883, 1604, 1902
5715, 1549, 1022, 5, 710
5716, 390, 122, 120, 1694
5717, 3, 550, 4, 1482
5718, 1445, 1760, 1477, 1874
5719, 1312, 1331, 1821, 1892
5720, 800, 1352, 803, 1658
5721, 1274, 761, 720, 1731
5722, 1171, 1757, 1552, 1892
5723, 1271, 1815, 975, 1821
5724, 132, 1494, 125, 370
5725, 1487, 1622, 1399, 1868
5726, 999, 1227, 713, 1699
5727, 234, 534, 238, 1609
5728, 1380, 1757, 1566, 1790
5729, 636, 1807, 1503, 1468
5730, 539, 180, 181, 1681
5731, 1063, 1062, 949, 1693
5732, 1478, 1452, 1904, 1909
5733, 1272, 1202, 896, 1704
5734, 10, 1884, 9, 47
5735, 1078, 960, 906, 1591
5736, 828, 1635, 1173, 1798
5737, 59, 470, 407, 1604
5738, 1077, 1707, 1154, 1385
5739, 963, 40, 1566, 1790
5740, 715, 716, 714, 1725
5741, 798, 796, 1199, 1587
5742, 264, 515, 587, 1900
5743, 112, 567, 638, 1625
5744, 1089, 768, 1711, 1829
5745, 1440, 1753, 1565, 1866
5746, 612, 156, 613, 1762
5747, 1083, 1307, 995, 1708
5748, 514, 1583, 140, 1912
5749, 1913, 1560, 1829, 1427
5750, 1292, 1317, 788, 1507
5751, 797, 1173, 1635, 1772
5752, 1379, 1735, 1611, 1813
5753, 778, 780, 1253, 1717
5754, 1168, 854, 890, 1899
5755, 1097, 1553, 1264, 1491
5756, 425, 1700, 359, 1902
5757, 594, 527, 595, 1641
5758, 1475, 1844, 1518, 1878
5759, 25, 26, 1098, 1507
5760, 765, 1711, 766, 1730
5761, 108, 109, 107, 1816
5762, 428, 604, 203, 1715
5763, 874, 1092, 1330, 1528
5764, 1114, 1682, 974, 1764
5765, 277, 426, 664, 1627
5766, 268, 687, 49, 1614
5767, 1370, 1006, 1304, 1896
5768, 1549, 5, 1022, 6
5769, 1254, 731, 730, 1851
5770, 1147, 1062, 1063, 1693
5771, 139, 141, 1624, 1912
5772, 429, 448, 348, 1564
5773, 383, 521, 364, 1546
5774, 1632, 1524, 1857, 1876
5775, 10, 329, 11, 1579
5776, 940, 1684, 1010, 1011
5777, 352, 488, 487, 1509
5778, 1781, 1802, 961, 1856
5779, 627, 601, 48, 1580
5780, 560, 625, 54, 1482
5781, 669, 536, 444, 1526
5782, 201, 240, 607, 1830
5783, 6, 470, 59, 1549
5784, 1535, 1687, 1398, 1851
5785, 210, 1657, 213, 1872
5786, 881, 879, 880, 1661
5787, 727, 1383, 1210, 741
5788, 915, 1202, 1080, 1704
5789, 928, 1297, 920, 1542
5790, 471, 411, 642, 1633
5791, 569, 1476, 585, 1907
5792, 856, 857, 855, 1812
5793, 629, 94, 597, 1615
5794, 1109, 1930, 1281, 1108
5795, 861, 1290, 860, 1840
5796, 83, 73, 84, 1605
5797, 734, 1106, 1863, 1905
5798, 686, 367, 366, 1841
5799, 105, 100, 106, 1817
5800, 1435, 1646, 1603, 1861
5801, 46, 420, 1636, 1877
5802, 430, 431, 355, 1575
5803, 1094, 942, 1431, 1363
5804, 115, 533, 640, 1887
5805, 730, 1628, 1535, 1851
5806, 486, 352, 487, 1903
5807, 1595, 993, 1211, 1278
5808, 513, 432, 1627, 1762
5809, 358, 359, 351, 1902
5810, 59, 7, 6, 1549
5811, 1298, 1764, 1134, 1765
5812, 1021, 1222, 1328, 1607
5813, 666, 365, 53, 1563
5814, 1546, 1387, 1810, 1841
5815, 467, 283, 575, 1692
5816, 423, 472, 1550, 1858
5817, 361, 359, 425, 1700
5818, 115, 1594, 417, 1842
5819, 1272, 1326, 1203, 1704
5820, 1150, 910, 1250, 1823
5821, 139, 593, 159, 1624
5822, 18, 704, 17, 1794
5823, 64, 667, 61, 1698
5824, 416, 596, 1736, 1871
5825, 1378, 1655, 1558, 1897
5826, 413, 1633, 491, 1756
5827, 1501, 1727, 1452, 1890
5828, 527, 1735, 1641, 1813
5829, 574, 614, 114, 1889
5830, 870, 1359, 869, 1548
5831, 1097, 1264, 1553, 1194
5832, 191, 190, 189, 1716
5833, 594, 218, 527, 1641
5834, 710, 1022, 1020, 1607
5835, 1913, 1829, 1560, 1502
5836, 1018, 975, 866, 1839
5837, 875, 1553, 1264, 1194
5838, 756, 1660, 954, 1726
5839, 1448, 1741, 1704, 1827
5840, 1157, 1769, 1672, 1649
5841, 920, 922, 928, 1542
5842, 1279, 1691, 735, 1886
5843, 1426, 1687, 1851, 1895
5844, 957, 1099, 1120, 1672
5845, 1149, 999, 714, 1806
5846, 549, 1580, 509, 1846
5847, 1275, 1626, 737, 1811
5848, 705, 715, 714, 1656
5849, 350, 351, 1600, 1883
5850, 417, 1842, 1594, 1871
5851, 489, 555, 488, 1509
5852, 1247, 1329, 972, 1801
5853, 915, 1080, 1079, 1704
5854, 45, 1555, 330, 331
5855, 27, 420, 28, 1636
5856, 1495, 1836, 1500, 1381
5857, 11, 12, 705, 1860
5858, 45, 1555, 331, 1647
5859, 570, 346, 400, 1744
5860, 366, 651, 419, 1666
5861, 318, 545, 382, 1747
5862, 1279, 733, 1523, 1886
5863, 478, 221, 174, 1573
5864, 1431, 1835, 1529, 1918
5865, 620, 478, 1573, 221
5866, 73, 421, 689, 1643
5867, 399, 662, 451, 1543
5868, 874, 886, 887, 1874
5869, 1335, 1678, 969, 1776
5870, 948, 949, 973, 1801
5871, 161, 158, 162, 1710
5872, 1007, 1923, 1102, 1255
5873, 258, 257, 354, 1557
5874, 774, 1319, 866, 1839
5875, 903, 917, 916, 1672
5876, 761, 1731, 1296, 1913
5877, 154, 150, 449, 1709
5878, 287, 590, 300, 1506
5879, 1044, 1045, 1043, 1490
5880, 198, 194, 199, 1597
5881, 1563, 1810, 1387, 1841
5882, 1098, 1101, 707, 1507
5883, 821, 823, 1233, 1473
5884, 624, 588, 129, 1652
5885, 306, 305, 339, 1836
5886, 677, 176, 414, 1571
5887, 715, 1071, 717, 1725
5888, 1664, 20, 357, 43
5889, 819, 1132, 839, 1714
5890, 1577, 741, 742, 1344
5891, 1118, 1213, 1225, 1601
5892, 510, 637, 135, 1642
5893, 762, 764, 1171, 1552
5894, 873, 876, 877, 1661
5895, 1374, 1530, 1779, 1845
5896, 201, 199, 202, 1830
5897, 1126, 986, 988, 1804
5898, 672, 110, 663, 1625
5899, 561, 615, 665, 1763
5900, 962, 1245, 1082, 1542
5901, 927, 964, 962, 1825
5902, 17, 704, 1306, 1794
5903, 1099, 956, 1120, 1672
5904, 625, 560, 470, 1482
5905, 513, 1627, 426, 1762
5906, 378, 376, 380, 1846
5907, 94, 1593, 93, 95
5908, 1140, 1139, 1684, 1823
5909, 1046, 1490, 1044, 1909
5910, 1724, 137, 139, 1912
5911, 1317, 1057, 788, 1507
5912, 35, 34, 687, 1678
5913, 1478, 1452, 1909, 1780
5914, 852, 869, 837, 1746
5915, 637, 1854, 472, 1858
5916, 442, 117, 499, 1674
5917, 517, 417, 1594, 1871
5918, 1415, 1653, 1631, 1862
5919, 1344, 741, 743, 1577
5920, 7, 1021, 6, 1549
5921, 393, 541, 1554, 1799
5922, 1154, 1124, 1361, 1707
5923, 612, 432, 156, 1762
5924, 733, 1254, 1136, 1873
5925, 1134, 862, 1192, 1769
5926, 364, 300, 383, 1546
5927, 300, 363, 1688, 1546
5928, 1598, 1807, 1378, 1586
5929, 283, 429, 279, 1567
5930, 1013, 1014, 936, 1866
5931, 1145, 1742, 1206, 1743
5932, 1183, 758, 1107, 1626
5933, 1203, 1202, 1272, 1704
5934, 1278, 1793, 746, 742
5935, 281, 279, 429, 1567
5936, 1293, 1008, 1341, 1786
5937, 1050, 1049, 1632, 1876
5938, 30, 1235, 29, 1450
5939, 1823, 940, 913, 941
5940, 875, 1194, 826, 1553
5941, 343, 339, 436, 1657
5942, 44, 39, 512, 1790
5943, 162, 505, 319, 1848
5944, 88, 697, 86, 1586
5945, 954, 1103, 953, 1726
5946, 906, 904, 915, 1591
5947, 455, 334, 333, 1648
5948, 1641, 1735, 1379, 1813
5949, 722, 1713, 1748, 723
5950, 1230, 1262, 1004, 1828
5951, 551, 568, 343, 1677
5952, 245, 685, 517, 1871
5953, 531, 50, 315, 1837
5954, 672, 638, 110, 1625
5955, 1055, 1163, 1070, 1910
5956, 298, 297, 296, 1833
5957, 817, 820, 815, 1473
5958, 46, 420, 27, 1636
5959, 849, 850, 848, 1824
5960, 1122, 1277, 743, 1667
5961, 482, 229, 338, 1879
5962, 738, 1116, 1348, 1645
5963, 752, 1443, 750, 1809
5964, 1357, 1184, 1713, 1827
5965, 1076, 1385, 1301, 1814
5966, 1523, 1873, 1398, 1886
5967, 664, 313, 459, 1627
5968, 523, 619, 196, 1705
5969, 748, 753, 986, 1689
5970, 234, 233, 179, 1755
5971, 1617, 1763, 1395, 1901
5972, 459, 563, 656, 1537
5973, 1310, 709, 997, 1631
5974, 1781, 1782, 1515, 1856
5975, 348, 1550, 472, 1854
5976, 640, 354, 508, 1887
5977, 1014, 1013, 1349, 1671
5978, 898, 888, 910, 1885
5979, 323, 571, 600, 1859
5980, 123, 120, 121, 1694
5981, 849, 846, 1216, 1824
5982, 726, 740, 723, 1713
5983, 473, 698, 82, 1547
5984, 1805, 19, 1266, 1356
5985, 1327, 1207, 760, 1774
5986, 540, 190, 192, 1716
5987, 270, 322, 1588, 1911
5988, 226, 578, 572, 1715
5989, 511, 599, 473, 1673
5990, 450, 295, 585, 1844
5991, 652, 445, 467, 1561
5992, 1271, 1331, 1167, 1821
5993, 626, 131, 136, 1644
5994, 330, 1838, 1860, 576
5995, 372, 263, 492, 1582
5996, 881, 880, 883, 1661
5997, 1502, 1823, 1560, 1913
5998, 904, 1267, 915, 1591
5999, 1823, 913, 940, 912
6000, 210, 209, 630, 1677
6001, 1059, 1293, 1074, 1786
6002, 798, 1352, 800, 1658
6003, 340, 481, 480, 1797
6004, 1378, 1791, 1612, 1897
6005, 990, 1667, 1122, 1770
6006, 1120, 956, 1180, 1672
6007, 1748, 1713, 1827, 1402
6008, 1398, 1851, 1687, 1895
6009, 1103, 954, 1124, 1707
6010, 503, 676, 99, 1848
6011, 873, 1330, 876, 1661
6012, 132, 1694, 390, 123
6013, 770, 769, 768, 1829
6014, 1274, 1160, 1296, 1731
6015, 1136, 1279, 733, 1523
6016, 1843, 1031, 1119, 1033
6017, 502, 500, 322, 1663
6018, 737, 1678, 35, 1811
6019, 1252, 1161, 1362, 1660
6020, 1786, 1256, 1059, 1293
6021, 59, 407, 633, 1604
6022, 416, 1736, 415, 1766
6023, 910, 888, 1250, 1560
6024, 1136, 1873, 967, 1795
6025, 1079, 1158, 1169, 1704
6026, 1189, 711, 2, 1639
6027, 1793, 747, 748, 746
6028, 522, 661, 344, 1917
6029, 722, 1713, 1827, 1748
6030, 456, 1924, 683, 77
6031, 363, 409, 345, 1908
6032, 1286, 963, 1087, 1566
6033, 607, 386, 540, 1701
6034, 1208, 1835, 1128, 1890
6035, 577, 353, 1604, 1884
6036, 417, 416, 336, 1842
6037, 1431, 1501, 1835, 1918
6038, 1267, 1202, 915, 1591
6039, 1560, 1731, 1517, 1899
6040, 1275, 758, 737, 1626
6041, 926, 1922, 1920, 1367
6042, 1032, 1031, 708, 1524
6043, 1589, 754, 749, 1164
6044, 736, 1103, 1124, 1616
6045, 132, 1694, 123, 125
6046, 928, 922, 1239, 1542
6047, 21, 22, 1258, 1718
6048, 1616, 1803, 1691, 1412
6049, 372, 371, 263, 1745
6050, 1691, 1803, 1616, 1186
6051, 187, 185, 196, 1705
6052, 77, 266, 267, 1787
6053, 1174, 1173, 1287, 1798
6054, 1045, 1044, 1046, 1490
6055, 1209, 1321, 1360, 1771
6056, 1865, 88, 87, 1586
6057, 890, 889, 1741, 1899
6058, 18, 504, 19, 1664
6059, 1249, 1284, 1301, 1788
6060, 86, 84, 85, 1586
6061, 433, 548, 388, 1853
6062, 12, 1176, 705, 1656
6063, 1039, 1037, 1038, 1843
6064, 1426, 1851, 1749, 1895
6065, 1083, 995, 994, 1708
6066, 1065, 1743, 1412, 1198
6067, 272, 573, 443, 1694
6068, 1378, 1573, 1655, 1897
6069, 814, 818, 816, 1601
6070, 1452, 1780, 1490, 1909
6071, 761, 1274, 1296, 1731
6072, 1304, 1006, 1187, 1800
6073, 790, 1241, 1117, 1687
6074, 54, 625, 4, 1482
6075, 490, 630, 209, 1677
6076, 1371, 1089, 768, 1711
6077, 280, 478, 1791, 1897
6078, 579, 104, 500, 1598
6079, 509, 549, 48, 1580
6080, 1039, 1038, 1040, 1843
6081, 182, 181, 178, 1681
6082, 574, 113, 614, 1888
6083, 682, 466, 631, 1677
6084, 1224, 1061, 1297, 1825
6085, 1865, 87, 88, 89
6086, 410, 1633, 411, 1870
6087, 1061, 965, 955, 1825
6088, 1380, 1650, 1757, 1790
6089, 875, 826, 830, 1553
6090, 848, 845, 846, 1824
6091, 778, 776, 777, 1683
6092, 1650, 512, 531, 38
6093, 1065, 1743, 1198, 1146
6094, 1082, 1300, 1179, 1514
6095, 1040, 1041, 1039, 1525
6096, 56, 1450, 1508, 1636
6097, 731, 1254, 733, 1873
6098, 1356, 20, 702, 1805
6099, 186, 559, 217, 1620
6100, 541, 149, 393, 1554
6101, 285, 623, 1596, 1915
6102, 1136, 736, 1279, 1523
6103, 829, 831, 830, 1553
6104, 1180, 930, 1120, 1672
6105, 728, 1403, 727, 1749
6106, 1069, 1738, 1055, 1910
6107, 1050, 1049, 1051, 1632
6108, 592, 1588, 409, 1908
6109, 1182, 949, 947, 1693
6110, 837, 834, 836, 1760
6111, 1283, 1030, 850, 1569
6112, 569, 476, 480, 1907
6113, 322, 323, 502, 1663
6114, 1305, 1023, 1181, 1768
6115, 1171, 739, 1757, 1892
6116, 1242, 997, 709, 1857
6117, 755, 1276, 1104, 1529
6118, 930, 917, 903, 1672
6119, 1226, 1298, 958, 1802
6120, 1318, 1063, 1182, 1693
6121, 886, 851, 1091, 1874
6122, 364, 1666, 419, 1546
6123, 20, 1356, 19, 1805
6124, 420, 1508, 55, 1636
6125, 384, 688, 374, 1679
6126, 213, 1657, 554, 1872
6127, 397, 620, 650, 1897
6128, 212, 1576, 554, 525
6129, 812, 810, 809, 1734
6130, 986, 1126, 750, 1792
6131, 1065, 1743, 1146, 1832
6132, 1650, 531, 512, 1516
6133, 93, 529, 95, 1593
6134, 1513, 1821, 1400, 1892
6135, 1104, 1727, 1223, 1918
6136, 1201, 732, 738, 1739
6137, 1080, 1202, 1203, 1704
6138, 1096, 1069, 1070, 1910
6139, 464, 1476, 480, 1797
6140, 96, 483, 597, 1740
6141, 47, 649, 10, 1722
6142, 1724, 139, 137, 138
6143, 86, 1807, 104, 1586
6144, 867, 886, 874, 1874
6145, 1135, 1261, 1019, 1545
6146, 1162, 1106, 1653, 1863
6147, 1019, 1096, 1135, 1545
6148, 375, 464, 373, 1476
6149, 1343, 871, 1127, 1697
6150, 1360, 1209, 1771, 1866
6151, 611, 631, 466, 1677
6152, 1153, 1325, 1178, 1777
6153, 1490, 1047, 1045, 1043
6154, 984, 1225, 1213, 1601
6155, 371, 617, 191, 1745
6156, 50, 1837, 1538, 1911
6157, 1321, 1133, 1719, 1771
6158, 1206, 1215, 983, 1742
6159, 295, 1844, 580, 1907
6160, 1208, 1232, 1220, 1890
6161, 1248, 1768, 1305, 1881
6162, 1239, 922, 934, 1542
6163, 1136, 967, 1873, 1254
6164, 76, 1928, 78, 79
6165, 1315, 719, 990, 1770
6166, 1739, 1851, 1398, 1895
6167, 1535, 1851, 1398, 1873
6168, 1012, 801, 1229, 1690
6169, 1170, 1742, 982, 1459
6170, 833, 834, 1243, 1759
6171, 312, 511, 659, 1673
6172, 1809, 1890, 1443, 1671
6173, 604, 578, 226, 1715
6174, 577, 353, 633, 1604
6175, 4, 550, 54, 1482
6176, 1303, 1071, 703, 1668
6177, 263, 635, 492, 1582
6178, 337, 699, 274, 1849
6179, 1116, 961, 1348, 1781
6180, 40, 1087, 963, 1566
6181, 787, 1133, 1209, 1771
6182, 1150, 767, 1200, 1684
6183, 514, 639, 140, 1583
6184, 545, 667, 644, 1706
6185, 735, 1279, 1186, 1691
6186, 1130, 1723, 989, 1708
6187, 1384, 1518, 1844, 1907
6188, 1009, 918, 1157, 1672
6189, 982, 1742, 983, 981
6190, 740, 1270, 1357, 1856
6191, 739, 1351, 963, 1757
6192, 1377, 1799, 1554, 1831
6193, 944, 1005, 1002, 1918
6194, 1497, 1779, 1688, 1916
6195, 276, 475, 525, 1894
6196, 853, 888, 854, 1899
6197, 207, 205, 604, 1608
6198, 1206, 1146, 1743, 1832
6199, 482, 483, 1740, 1879
6200, 971, 883, 972, 1528
6201, 142, 621, 144, 1634
6202, 1529, 1727, 1104, 1918
6203, 767, 1207, 1200, 1607
6204, 458, 404, 152, 1585
6205, 1294, 937, 1920, 926
6206, 456, 1924, 77, 1787
6207, 1170, 1742, 983, 982
6208, 743, 1277, 1085, 1729
6209, 69, 356, 74, 1654
6210, 829, 830, 826, 1553
6211, 1284, 847, 1301, 1788
6212, 1581, 777, 1350, 968
6213, 333, 1648, 320, 1906
6214, 72, 71, 69, 1737
6215, 1688, 1779, 1386, 1916
6216, 1093, 882, 1309, 1801
6217, 345, 1497, 1468, 636
6218, 73, 85, 84, 1605
6219, 270, 269, 322, 1911
6220, 896, 1267, 897, 1591
6221, 953, 754, 756, 1726
6222, 984, 1213, 816, 1601
6223, 998, 1028, 1126, 1804
6224, 131, 134, 136, 1644
6225, 756, 1161, 954, 1660
6226, 172, 173, 174, 1875
6227, 1560, 1731, 1427, 1913
6228, 1137, 961, 1802, 1856
6229, 285, 623, 288, 1596
6230, 1344, 743, 1211, 1577
6231, 1124, 1077, 1311, 1616
6232, 493, 384, 492, 1679
6233, 540, 192, 198, 1701
6234, 188, 559, 186, 1620
6235, 270, 1588, 1837, 1911
6236, 706, 1222, 1021, 1607
6237, 735, 1316, 732, 1886
6238, 1149, 1820, 1322, 1913
6239, 55, 398, 57, 1508
6240, 616, 464, 679, 1797
6241, 330, 1838, 576, 331
6242, 1072, 1271, 975, 1821
6243, 1320, 1127, 871, 1697
6244, 1195, 847, 1284, 1788
6245, 146, 149, 148, 1893
6246, 1291, 1297, 1061, 1825
6247, 111, 638, 567, 1625
6248, 996, 1130, 1282, 1723
6249, 1122, 1210, 1315, 1770
6250, 1529, 1835, 1727, 1918
6251, 1727, 1835, 1501, 1918
6252, 1252, 1204, 991, 1637
6253, 1199, 796, 804, 1587
6254, 656, 216, 475, 1894
6255, 413, 471, 491, 1633
6256, 994, 1084, 1083, 1623
6257, 391, 469, 406, 1556
6258, 783, 1168, 1899, 854
6259, 612, 449, 433, 1670
6260, 1036, 1034, 1172, 1921
6261, 1298, 1134, 1764, 1115
6262, 459, 239, 563, 1537
6263, 974, 1134, 1115, 1764
6264, 603, 437, 339, 1657
6265, 1346, 1132, 1191, 1808
6266, 912, 910, 1150, 1823
6267, 772, 975, 769, 1815
6268, 838, 804, 819, 1714
6269, 170, 1735, 527, 1813
6270, 291, 623, 304, 1878
6271, 232, 1583, 639, 1858
6272, 853, 768, 1089, 1829
6273, 1631, 1863, 1466, 1632
6274, 664, 426, 513, 1627
6275, 497, 555, 489, 1578
6276, 34, 969, 1335, 1678
6277, 478, 197, 280, 1791
6278, 1805, 1307, 1266, 1665
6279, 360, 1700, 361, 1914
6280, 103, 628, 87, 1767
6281, 1351, 739, 38, 1650
6282, 1271, 1730, 766, 1815
6283, 753, 1278, 993, 1595
6284, 1031, 1818, 1026, 1857
6285, 930, 1280, 1120, 1672
6286, 816, 818, 984, 1601
6287, 997, 998, 988, 1804
6288, 1142, 1296, 1141, 1913
6289, 633, 358, 1883, 1902
6290, 747, 745, 746, 1793
6291, 1221, 835, 1220, 1864
6292, 771, 769, 770, 1622
6293, 838, 1198, 804, 1592
6294, 1174, 828, 1173, 1798
6295, 211, 490, 457, 1677
6296, 589, 1722, 47, 1884
6297, 883, 884, 881, 1661
6298, 1369, 952, 1030, 1803
6299, 290, 292, 602, 1844
6300, 1581, 777, 779, 1350
6301, 250, 143, 403, 1541
6302, 255, 1926, 256, 254
6303, 1355, 786, 780, 1717
6304, 26, 700, 1172, 1507
6305, 316, 1675, 315, 1837
6306, 1208, 1244, 1128, 1835
6307, 485, 613, 586, 1762
6308, 732, 1739, 731, 1886
6309, 1145, 843, 1215, 1742
6310, 440, 1541, 403, 404
6311, 498, 45, 331, 1647
6312, 784, 791, 789, 1680
6313, 1001, 1339, 1246, 1786
6314, 289, 583, 590, 1756
6315, 351, 359, 360, 1700
6316, 1017, 1218, 1092, 1801
6317, 1050, 1783, 1196, 1904
6318, 633, 577, 1604, 1883
6319, 365, 1563, 367, 1841
6320, 400, 1744, 671, 1889
6321, 111, 567, 418, 1625
6322, 1164, 967, 747, 1589
6323, 195, 679, 481, 1797
6324, 1125, 1027, 1119, 1818
6325, 1104, 1197, 1529, 1918
6326, 146, 148, 147, 1893
6327, 1179, 1157, 938, 1649
6328, 362, 525, 554, 1576
6329, 113, 454, 453, 1888
6330, 259, 260, 272, 1695
6331, 576, 1722, 486, 1838
6332, 1191, 1112, 1346, 1775
6333, 749, 1753, 748, 1792
6334, 265, 391, 406, 1556
6335, 797, 792, 1173, 1772
6336, 1501, 1835, 1727, 1890
6337, 569, 501, 585, 1476
6338, 999, 1342, 1156, 1806
6339, 364, 686, 1666, 1841
6340, 1356, 702, 1131, 1805
6341, 350, 351, 224, 1600
6342, 212, 208, 210, 1872
6343, 1162, 1653, 1054, 1862
6344, 840, 838, 839, 1714
6345, 1815, 1725, 1399, 1469
6346, 378, 1846, 410, 1870
6347, 46, 1636, 246, 1877
6348, 400, 570, 1744, 1889
6349, 450, 602, 295, 1844
6350, 517, 685, 417, 1871
6351, 1149, 1322, 1142, 1913
6352, 1138, 1303, 703, 1669
6353, 1148, 1063, 1318, 1693
6354, 1604, 1883, 577, 1884
6355, 90, 89, 91, 1865
6356, 1157, 923, 938, 1649
6357, 416, 685, 596, 1871
6358, 1298, 1765, 958, 1802
6359, 727, 730, 729, 1851
6360, 126, 124, 127, 1773
6361, 731, 1739, 729, 1851
6362, 797, 828, 819, 1635
6363, 1101, 1524, 708, 1466
6364, 206, 204, 205, 1608
6365, 592, 316, 465, 1588
6366, 765, 766, 764, 1730
6367, 1286, 1171, 963, 1757
6368, 654, 498, 225, 1527
6369, 1657, 1677, 1381, 1872
6370, 1064, 973, 1062, 1801
6371, 915, 1078, 906, 1591
6372, 1594, 1842, 1417, 1871
6373, 923, 927, 938, 1825
6374, 1706, 382, 600, 644
6375, 1014, 1349, 1177, 1671
6376, 509, 48, 601, 1580
6377, 1330, 873, 872, 1661
6378, 932, 1198, 838, 1592
6379, 213, 553, 554, 1657
6380, 80, 698, 473, 1547
6381, 334, 320, 333, 1648
6382, 1079, 1169, 1078, 1704
6383, 156, 586, 613, 1762
6384, 1241, 1321, 1117, 1719
6385, 523, 196, 185, 1705
6386, 1478, 1456, 1804, 1783
6387, 319, 161, 1710, 1906
6388, 436, 610, 611, 1657
6389, 300, 286, 287, 1688
6390, 1055, 1068, 1053, 1738
6391, 452, 83, 681, 1852
6392, 582, 533, 335, 1887
6393, 755, 1104, 1197, 1529
6394, 839, 1132, 842, 1808
6395, 417, 115, 517, 1594
6396, 513, 432, 313, 1627
6397, 1846, 688, 658, 1679
6398, 593, 139, 141, 1624
6399, 987, 989, 1130, 1723
6400, 1259, 1141, 1159, 1885
6401, 1541, 1481, 1888, 1889
6402, 128, 131, 126, 1773
6403, 1077, 1369, 1311, 1803
6404, 26, 46, 1636, 246
6405, 939, 1114, 1185, 1682
6406, 1052, 1050, 1051, 1783
6407, 292, 580, 295, 1844
6408, 679, 464, 480, 1797
6409, 234, 235, 233, 1755
6410, 1019, 1086, 1240, 1702
6411, 1305, 1248, 1023, 1768
6412, 1049, 1048, 1060, 1876
6413, 1149, 1342, 999, 1806
6414, 100, 245, 106, 1817
6415, 914, 913, 1259, 1885
6416, 56, 246, 1636, 1877
6417, 1141, 1259, 941, 1823
6418, 1076, 1154, 1301, 1385
6419, 728, 959, 726, 1782
6420, 322, 465, 270, 1588
6421, 1140, 1142, 1141, 1823
6422, 1815, 1399, 1725, 1622
6423, 897, 895, 896, 1591
6424, 1653, 1905, 1364, 1441
6425, 212, 1576, 525, 1894
6426, 173, 677, 175, 1875
6427, 387, 388, 389, 1853
6428, 918, 916, 917, 1672
6429, 232, 472, 423, 1858
6430, 482, 676, 405, 1848
6431, 861, 864, 1290, 1850
6432, 1069, 1068, 1055, 1738
6433, 101, 117, 1674, 118
6434, 1653, 1364, 1905, 1106
6435, 446, 304, 623, 1915
6436, 360, 359, 361, 1700
6437, 318, 438, 60, 1747
6438, 486, 589, 349, 1903
6439, 1846, 658, 688, 655
6440, 728, 725, 727, 1403
6441, 414, 176, 488, 1509
6442, 293, 292, 291, 1878
6443, 711, 701, 2, 1639
6444, 394, 1696, 536, 1901
6445, 429, 445, 448, 1564
6446, 1104, 1223, 1002, 1918
6447, 555, 331, 487, 1838
6448, 1198, 1065, 1188, 1412
6449, 428, 578, 604, 1715
6450, 296, 293, 564, 1599
6451, 441, 647, 70, 1547
6452, 350, 358, 351, 1883
6453, 817, 821, 820, 1473
6454, 527, 170, 172, 1735
6455, 251, 252, 242, 1900
6456, 1067, 1245, 1302, 1542
6457, 682, 551, 343, 1677
6458, 657, 210, 213, 1872
6459, 866, 772, 774, 1839
6460, 1379, 1750, 1641, 1813
6461, 599, 121, 119, 1674
6462, 108, 106, 517, 1816
6463, 1232, 1904, 1236, 1015
6464, 162, 319, 161, 1710
6465, 1268, 1139, 1222, 1684
6466, 688, 655, 434, 1846
6467, 1391, 1509, 1571, 1891
6468, 345, 1497, 636, 286
6469, 1425, 1604, 1883, 1902
6470, 593, 671, 598, 1744
6471, 1312, 1331, 1072, 1821
6472, 519, 247, 1877, 408
6473, 367, 365, 666, 1563
6474, 735, 1185, 1316, 1691
6475, 115, 417, 533, 1842
6476, 886, 867, 851, 1874
6477, 56, 25, 24, 1636
6478, 74, 421, 72, 1733
6479, 213, 554, 657, 1872
6480, 516, 494, 532, 1685
6481, 86, 697, 401, 1807
6482, 630, 490, 211, 1677
6483, 639, 232, 140, 1583
6484, 641, 543, 385, 1646
6485, 773, 1263, 775, 1868
6486, 390, 120, 123, 1694
6487, 382, 571, 49, 1859
6488, 544, 456, 518, 1787
6489, 1589, 1295, 1726, 1164
6490, 734, 1863, 30, 1905
6491, 300, 363, 345, 1688
6492, 675, 423, 348, 1550
6493, 375, 381, 464, 1476
6494, 589, 577, 1883, 1884
6495, 977, 979, 978, 1789
6496, 1083, 1084, 744, 1623
6497, 56, 246, 25, 1636
6498, 97, 105, 546, 1761
6499, 722, 721, 723, 1748
6500, 1268, 1140, 1139, 1684
6501, 428, 506, 646, 1917
6502, 1193, 1084, 1085, 1729
6503, 423, 472, 348, 1550
6504, 959, 1348, 961, 1781
6505, 1076, 845, 848, 1814
6506, 416, 596, 474, 1736
6507, 569, 381, 501, 1476
6508, 727, 1383, 741, 1628
6509, 170, 527, 218, 1813
6510, 870, 872, 873, 1661
6511, 68, 64, 66, 1861
6512, 104, 86, 401, 1807
6513, 794, 792, 797, 1772
6514, 76, 441, 70, 1547
6515, 631, 611, 210, 1677
6516, 1877, 247, 519, 355
6517, 276, 243, 244, 1606
6518, 201, 202, 239, 1830
6519, 1162, 1060, 1235, 1863
6520, 139, 140, 141, 1912
6521, 963, 1171, 739, 1757
6522, 1103, 1136, 1295, 1795
6523, 1155, 706, 8, 1834
6524, 956, 1099, 1016, 1649
6525, 1291, 1016, 1099, 1649
6526, 742, 1535, 730, 1628
6527, 1739, 1749, 729, 1851
6528, 514, 140, 137, 1912
6529, 287, 285, 288, 1596
6530, 456, 267, 518, 1787
6531, 199, 194, 427, 1597
6532, 417, 685, 416, 1871
6533, 59, 633, 353, 1604
6534, 1384, 1476, 1797, 1907
6535, 1354, 21, 1258, 1718
6536, 1010, 1150, 1200, 1684
6537, 206, 205, 207, 1608
6538, 695, 484, 608, 1880
6539, 1032, 1034, 1033, 1843
6540, 745, 742, 746, 1793
6541, 1497, 1688, 1468, 1916
6542, 92, 91, 93, 1751
6543, 1018, 1019, 1261, 1754
6544, 759, 701, 711, 1639
6545, 56, 317, 247, 1877
6546, 775, 776, 774, 1683
6547, 385, 543, 542, 1646
6548, 538, 398, 271, 1575
6549, 823, 824, 825, 1473
6550, 1311, 736, 1124, 1616
6551, 486, 576, 649, 1722
6552, 413, 491, 583, 1756
6553, 1063, 949, 1182, 1693
6554, 725, 723, 721, 1748
6555, 611, 610, 213, 1657
6556, 753, 987, 986, 1689
6557, 717, 990, 719, 1662
6558, 990, 1073, 1122, 1667
6559, 337, 530, 618, 1849
6560, 1877, 1575, 519, 562
6561, 219, 243, 220, 1822
6562, 472, 637, 347, 1854
6563, 208, 447, 206, 1608
6564, 833, 1221, 1229, 1759
6565, 670, 489, 176, 1509
6566, 285, 287, 286, 1596
6567, 522, 344, 646, 1917
6568, 97, 100, 105, 1761
6569, 1245, 962, 1302, 1542
6570, 1184, 740, 1357, 1713
6571, 980, 978, 979, 1789
6572, 1192, 862, 1099, 1769
6573, 477, 302, 306, 1836
6574, 36, 37, 1275, 1811
6575, 708, 1031, 1026, 1857
6576, 658, 1679, 493, 1914
6577, 380, 509, 378, 1846
6578, 765, 768, 766, 1711
6579, 263, 191, 189, 1745
6580, 925, 1922, 926, 924
6581, 519, 1575, 1877, 355
6582, 756, 1362, 1161, 1660
6583, 215, 219, 220, 1822
6584, 1066, 1050, 1196, 1904
6585, 299, 477, 309, 1728
6586, 1016, 1291, 1061, 1825
6587, 609, 482, 483, 1740
6588, 1260, 1029, 1237, 1812
6589, 94, 1593, 95, 1521
6590, 1271, 1072, 1331, 1821
6591, 980, 1025, 1161, 1659
6592, 577, 9, 353, 1884
6593, 206, 207, 208, 1608
6594, 507, 257, 264, 1900
6595, 129, 665, 615, 1901
6596, 513, 156, 432, 1762
6597, 772, 866, 975, 1839
6598, 890, 889, 891, 1741
6599, 413, 411, 471, 1633
6600, 959, 740, 726, 1782
6601, 270, 1837, 50, 1911
6602, 1114, 939, 974, 1682
6603, 549, 380, 435, 1846
6604, 342, 477, 568, 1728
6605, 541, 449, 150, 1709
6606, 1271, 1167, 766, 1730
6607, 1201, 729, 1739, 1749
6608, 1140, 941, 1139, 1823
6609, 963, 39, 40, 1790
6610, 1106, 1054, 1162, 1653
6611, 1589, 1295, 1164, 967
6612, 760, 763, 762, 1774
6613, 1413, 1846, 1679, 1870
6614, 366, 419, 686, 1666
6615, 1321, 1209, 1133, 1771
6616, 1167, 1331, 1171, 1892
6617, 938, 927, 962, 1825
6618, 158, 161, 157, 1898
6619, 1146, 1205, 1065, 1832
6620, 750, 749, 748, 1792
6621, 714, 716, 1149, 1820
6622, 522, 506, 481, 1917
6623, 1880, 357, 369, 695
6624, 348, 472, 347, 1854
6625, 1166, 1039, 1043, 1828
6626, 651, 315, 316, 1675
6627, 172, 221, 527, 1735
6628, 509, 410, 378, 1846
6629, 609, 483, 96, 1740
6630, 658, 384, 493, 1679
6631, 1366, 1184, 724, 1827
6632, 1090, 857, 856, 1812
6633, 914, 911, 913, 1885
6634, 990, 1122, 1315, 1770
6635, 1107, 758, 1275, 1626
6636, 318, 60, 545, 1747
6637, 961, 1270, 740, 1856
6638, 1008, 1000, 1246, 1786
6639, 1009, 916, 918, 1672
6640, 336, 337, 274, 1766
6641, 869, 1121, 837, 1746
6642, 511, 312, 599, 1673
6643, 1159, 1088, 914, 1885
6644, 89, 90, 88, 1865
6645, 667, 64, 231, 1698
6646, 794, 797, 796, 1772
6647, 253, 1926, 255, 254
6648, 516, 532, 327, 1685
6649, 520, 1888, 574, 1889
6650, 396, 637, 510, 1642
6651, 1361, 1124, 954, 1707
6652, 824, 823, 822, 1473
6653, 569, 585, 476, 1907
6654, 1288, 1004, 1262, 1828
6655, 462, 618, 1733, 1849
6656, 87, 88, 86, 1586
6657, 1347, 1113, 1191, 1775
6658, 1143, 1200, 1207, 1607
6659, 958, 909, 1137, 1802
6660, 1242, 708, 1857, 1466
6661, 168, 169, 170, 1813
6662, 592, 409, 363, 1908
6663, 1219, 882, 1218, 1801
6664, 1185, 735, 1186, 1691
6665, 496, 691, 225, 1826
6666, 480, 464, 381, 1476
6667, 113, 574, 454, 1888
6668, 481, 679, 480, 1797
6669, 1162, 734, 1106, 1863
6670, 108, 107, 106, 1816
6671, 213, 610, 553, 1657
6672, 1, 601, 627, 1869
6673, 428, 427, 506, 1917
6674, 1337, 1125, 1336, 1780
6675, 1114, 974, 1115, 1764
6676, 1133, 1117, 1321, 1719
6677, 1052, 1153, 1177, 1777
6678, 1253, 780, 786, 1717
6679, 1065, 1743, 1832, 1412
6680, 487, 576, 486, 1838
6681, 718, 717, 719, 1662
6682, 165, 233, 504, 1621
6683, 130, 163, 17, 1651
6684, 150, 154, 153, 1898
6685, 275, 463, 442, 1674
6686, 1008, 1246, 1341, 1786
6687, 1780, 1828, 1909, 1525
6688, 8, 353, 9, 1834
6689, 586, 513, 426, 1762
6690, 586, 535, 485, 1762
6691, 892, 890, 891, 1741
6692, 739, 1331, 1312, 1892
6693, 156, 513, 586, 1762
6694, 16, 744, 15, 1619
6695, 407, 425, 359, 1902
6696, 969, 35, 737, 1678
6697, 890, 854, 889, 1899
6698, 1070, 1069, 1055, 1910
6699, 524, 362, 552, 1732
6700, 1346, 842, 1132, 1808
6701, 569, 480, 381, 1476
6702, 1242, 976, 708, 1466
6703, 723, 740, 1184, 1713
6704, 283, 278, 575, 1692
6705, 22, 369, 52, 1880
6706, 729, 731, 732, 1739
6707, 1109, 1930, 1108, 965
6708, 35, 969, 34, 1678
6709, 300, 364, 363, 1546
6710, 948, 973, 1017, 1801
6711, 1204, 1075, 991, 1637
6712, 766, 1167, 764, 1730
6713, 1173, 828, 797, 1635
6714, 1263, 783, 1168, 1785
6715, 1162, 1054, 1051, 1862
6716, 342, 311, 309, 1728
6717, 333, 320, 319, 1906
6718, 436, 437, 610, 1657
6719, 181, 180, 178, 1681
6720, 1145, 1206, 1146, 1743
6721, 1306, 744, 16, 1619
6722, 1211, 1085, 994, 1882
6723, 504, 422, 43, 1664
6724, 272, 273, 275, 1694
6725, 1248, 1305, 1217, 1881
6726, 1154, 1076, 1077, 1385
6727, 1334, 969, 1110, 1776
6728, 364, 419, 363, 1546
6729, 861, 860, 859, 1840
6730, 1155, 9, 1227, 1834
6731, 851, 852, 837, 1760
6732, 849, 848, 846, 1824
6733, 1148, 1100, 1329, 1693
6734, 1166, 1234, 1058, 1828
6735, 765, 1371, 768, 1711
6736, 19, 1266, 18, 1665
6737, 87, 628, 89, 1767
6738, 1122, 1073, 1277, 1667
6739, 14, 1138, 703, 1669
6740, 130, 225, 691, 1826
6741, 1045, 1127, 1320, 1786
6742, 536, 394, 395, 1696
6743, 1922, 937, 926, 1920
6744, 853, 770, 768, 1829
6745, 790, 793, 1241, 1687
6746, 1106, 734, 1105, 1905
6747, 1129, 1208, 1128, 1890
6748, 666, 53, 1, 1869
6749, 86, 104, 84, 1586
6750, 251, 648, 253, 1900
6751, 19, 504, 43, 1664
6752, 1001, 1246, 1000, 1786
6753, 1247, 972, 1093, 1801
6754, 349, 223, 352, 1903
6755, 802, 1229, 801, 1690
6756, 1231, 1033, 1035, 1843
6757, 270, 50, 269, 1911
6758, 279, 280, 197, 1791
6759, 847, 845, 1301, 1814
6760, 920, 864, 863, 1850
6761, 1207, 763, 760, 1774
6762, 1143, 1020, 1200, 1607
6763, 1349, 1232, 1015, 1671
6764, 769, 1271, 766, 1815
6765, 741, 730, 727, 1628
6766, 777, 776, 775, 1683
6767, 787, 1325, 1214, 1720
6768, 1307, 1131, 995, 1708
6769, 280, 650, 478, 1897
6770, 1219, 1309, 882, 1801
6771, 1134, 1192, 958, 1765
6772, 457, 551, 211, 1677
6773, 615, 394, 536, 1901
6774, 1090, 1260, 1237, 1812
6775, 1090, 856, 1260, 1812
6776, 509, 380, 549, 1846
6777, 393, 448, 541, 1799
6778, 1214, 786, 787, 1720
6779, 1077, 952, 1369, 1803
6780, 431, 544, 518, 1787
6781, 1244, 1208, 835, 1835
6782, 474, 415, 416, 1736
6783, 631, 211, 682, 1677
6784, 636, 401, 697, 1807
6785, 26, 1172, 1098, 1507
6786, 1152, 871, 1343, 1697
6787, 1012, 1221, 1220, 1864
6788, 1473, 829, 1195, 825
6789, 544, 431, 542, 1787
6790, 1353, 1240, 1086, 1702
6791, 1266, 704, 18, 1665
6792, 365, 367, 521, 1841
6793, 1145, 1215, 1206, 1742
6794, 1125, 1337, 1028, 1780
6795, 639, 637, 472, 1858
6796, 1234, 1262, 1058, 1828
6797, 715, 705, 1176, 1656
6798, 111, 1481, 113, 694
6799, 817, 822, 821, 1473
6800, 586, 426, 535, 1762
6801, 631, 210, 630, 1677
6802, 996, 987, 1130, 1723
6803, 551, 682, 211, 1677
6804, 616, 679, 195, 1797
6805, 553, 610, 437, 1657
6806, 541, 448, 151, 1799
6807, 424, 222, 224, 1855
6808, 401, 1807, 636, 1468
6809, 503, 319, 505, 1848
6810, 416, 415, 336, 1766
6811, 540, 198, 607, 1701
6812, 1320, 1059, 1045, 1786
6813, 40, 39, 44, 1790
6814, 1201, 728, 729, 1749
6815, 1130, 989, 995, 1708
6816, 1277, 1193, 1085, 1729
6817, 1094, 942, 943, 1638
6818, 345, 286, 300, 1688
6819, 191, 192, 190, 1716
6820, 36, 737, 35, 1811
6821, 841, 843, 840, 1796
6822, 585, 295, 476, 1907
6823, 725, 1210, 727, 1403
6824, 1, 42, 666, 1869
6825, 515, 253, 648, 1900
6826, 1050, 1042, 1049, 1876
6827, 64, 63, 65, 1861
6828, 1206, 818, 1146, 1832
6829, 9, 577, 47, 1884
6830, 462, 618, 74, 1733
6831, 1064, 1309, 1219, 1801
6832, 395, 394, 328, 1696
6833, 316, 315, 270, 1837
6834, 400, 671, 440, 1889
6835, 1309, 1247, 1093, 1801
6836, 1015, 1236, 1196, 1904
6837, 332, 422, 235, 1847
6838, 409, 592, 465, 1588
6839, 513, 313, 664, 1627
6840, 364, 521, 686, 1841
6841, 728, 727, 729, 1749
6842, 958, 1137, 1226, 1802
6843, 201, 239, 240, 1830
6844, 1148, 1329, 1147, 1693
6845, 411, 379, 410, 1870
6846, 499, 275, 442, 1674
6847, 349, 352, 486, 1903
6848, 811, 808, 1332, 1721
6849, 576, 487, 331, 1838
6850, 389, 548, 652, 1853
6851, 263, 371, 191, 1745
6852, 1478, 1456, 1809, 1804
6853, 1303, 1073, 1071, 1668
6854, 1191, 1113, 1112, 1775
6855, 342, 309, 477, 1728
6856, 618, 421, 74, 1733
6857, 1247, 1309, 1064, 1801
6858, 911, 898, 910, 1885
6859, 1257, 1046, 1044, 1909
6860, 601, 1, 53, 1869
6861, 384, 658, 688, 1679
6862, 953, 756, 954, 1726
6863, 1221, 833, 1243, 1759
6864, 1360, 1014, 1209, 1866
6865, 879, 878, 1661, 877
6866, 973, 1064, 1219, 1801
6867, 1322, 761, 1296, 1913
6868, 1041, 1066, 1044, 1909
6869, 71, 67, 69, 1737
6870, 858, 859, 860, 1840
6871, 127, 128, 126, 1773
6872, 1129, 1232, 1208, 1890
6873, 1360, 936, 1014, 1866
6874, 504, 163, 165, 1621
6875, 312, 561, 127, 1763
6876, 1035, 1033, 1034, 1843
6877, 1148, 1147, 1063, 1693
6878, 888, 889, 854, 1899
6879, 819, 839, 838, 1714
6880, 419, 364, 686, 1666
6881, 1295, 1136, 967, 1795
6882, 212, 657, 554, 1872
6883, 345, 1497, 286, 1688
6884, 851, 837, 836, 1760
6885, 791, 1333, 789, 1680
6886, 400, 440, 570, 1889
6887, 1276, 752, 1104, 1727
6888, 590, 491, 383, 1756
6889, 1137, 961, 1226, 1802
6890, 579, 502, 83, 1852
6891, 272, 275, 573, 1694
6892, 436, 339, 437, 1657
6893, 717, 716, 715, 1725
6894, 961, 1137, 1270, 1856
6895, 94, 92, 93, 1751
6896, 293, 291, 304, 1878
6897, 1053, 1051, 1054, 1862
6898, 1187, 1006, 810, 1800
6899, 440, 671, 250, 1889
6900, 987, 988, 986, 1689
6901, 1338, 750, 1126, 1809
6902, 1178, 1177, 1153, 1777
6903, 552, 321, 524, 1732
6904, 50, 270, 315, 1837
6905, 111, 113, 1481, 614
6906, 1146, 932, 1145, 1743
6907, 773, 771, 1263, 1868
6908, 1242, 708, 1026, 1857
6909, 177, 174, 175, 1875
6910, 1275, 737, 36, 1811
6911, 491, 590, 583, 1756
6912, 561, 665, 127, 1763
6913, 811, 807, 808, 1721
6914, 724, 1357, 1169, 1827
6915, 407, 358, 633, 1902
6916, 388, 548, 389, 1853
6917, 520, 468, 574, 1888
6918, 1334, 1335, 969, 1776
6919, 50, 268, 269, 1911
6920, 420, 591, 528, 1877
6921, 769, 975, 1271, 1815
6922, 734, 30, 31, 1905
6923, 382, 545, 644, 1706
6924, 1140, 1141, 941, 1823
6925, 306, 302, 305, 1836
6926, 335, 533, 336, 1842
6927, 1322, 1149, 716, 1820
6928, 1035, 1036, 1037, 1843
6929, 1232, 1904, 1015, 1671
6930, 574, 468, 454, 1888
6931, 483, 338, 494, 1879
6932, 1038, 1037, 1036, 1843
6933, 608, 52, 695, 1880
6934, 1903, 1451, 1380, 1474
6935, 822, 823, 821, 1473
6936, 958, 1298, 1134, 1765
6937, 650, 620, 478, 1897
6938, 993, 1211, 994, 1882
6939, 476, 295, 580, 1907
6940, 350, 589, 577, 1883
6941, 23, 708, 976, 1466
6942, 943, 1204, 1094, 1638
6943, 157, 155, 158, 1898
6944, 658, 493, 361, 1914
6945, 729, 732, 1201, 1739
6946, 254, 526, 1926, 256
6947, 810, 1006, 1332, 1800
6948, 1166, 1047, 1234, 1828
6949, 1279, 735, 733, 1886
6950, 482, 338, 483, 1879
6951, 584, 161, 320, 1906
6952, 1219, 1218, 1017, 1801
6953, 754, 749, 751, 1758
6954, 216, 447, 475, 1894
6955, 212, 210, 657, 1872
6956, 336, 415, 337, 1766
6957, 292, 295, 602, 1844
6958, 752, 1223, 1104, 1727
6959, 1017, 973, 1219, 1801
6960, 45, 498, 668, 1647
6961, 582, 354, 640, 1887
6962, 1162, 1235, 734, 1863
6963, 748, 986, 750, 1792
6964, 56, 247, 246, 1877
6965, 730, 741, 742, 1628
6966, 994, 1708, 989, 1882
6967, 223, 224, 222, 1855
6968, 600, 571, 382, 1859
6969, 1121, 1368, 837, 1746
6970, 23, 1101, 708, 1466
6971, 521, 367, 686, 1841
6972, 71, 660, 67, 1737
6973, 1338, 752, 750, 1809
6974, 631, 630, 211, 1677
6975, 157, 153, 155, 1898
6976, 669, 129, 536, 1901
6977, 1166, 1043, 1047, 1828
6978, 1035, 1034, 1036, 1843
6979, 841, 1300, 843, 1796
6980, 255, 515, 264, 1900
6981, 1061, 955, 1016, 1825
6982, 345, 401, 636, 1468
6983, 676, 503, 405, 1848
6984, 446, 285, 284, 1915
6985, 589, 486, 47, 1722
6986, 998, 1126, 988, 1804
6987, 732, 731, 733, 1886
6988, 154, 155, 153, 1898
6989, 1027, 1031, 1119, 1818
6990, 319, 320, 161, 1906
6991, 253, 1926, 254, 252
6992, 255, 253, 515, 1900
6993, 140, 139, 137, 1912
6994, 405, 503, 505, 1848
6995, 114, 520, 574, 1889
6996, 218, 168, 170, 1813
6997, 1171, 1331, 739, 1892
6998, 1259, 1159, 914, 1885
6999, 357, 422, 332, 1847
7000, 749, 747, 748, 1753
7001, 378, 410, 379, 1870
7002, 1357, 724, 1184, 1827
7003, 730, 731, 729, 1851
7004, 1313, 911, 914, 1885
7005, 64, 65, 66, 1861
7006, 252, 251, 253, 1900
7007, 615, 536, 129, 1901
7008, 1288, 1262, 1234, 1828
7009, 1076, 1301, 845, 1814
7010, 589, 47, 577, 1884
7011, 1042, 1040, 1048, 1876
7012, 12, 11, 329, 1860
7013, 407, 359, 358, 1902
7014, 435, 434, 655, 1846
7015, 246, 247, 408, 1877
7016, 1024, 1923, 1151, 1925
7017, 640, 533, 582, 1887
7018, 176, 489, 488, 1509
7019, 336, 533, 417, 1842
7020, 447, 525, 475, 1894
7021, 695, 357, 332, 1847
7022, 671, 400, 598, 1744
7023, 1146, 818, 1205, 1832
7024, 633, 358, 577, 1883
7025, 1031, 1027, 1026, 1818
7026, 735, 732, 733, 1886
7027, 1142, 1322, 1296, 1913
7028, 232, 639, 472, 1858
7029, 1155, 8, 9, 1834
7030, 330, 12, 329, 1860
7031, 1104, 1005, 1197, 1918
7032, 993, 994, 989, 1882
7033, 997, 1242, 1026, 1857
7034, 861, 863, 864, 1850
7035, 1196, 1050, 1052, 1783
7036, 649, 47, 486, 1722
7037, 1313, 898, 911, 1885
7038, 1304, 1123, 1091, 1896
7039, 1091, 1370, 1304, 1896
7040, 619, 360, 493, 1914
7041, 175, 174, 173, 1875
7042, 1236, 1066, 1196, 1904
7043, 462, 699, 337, 1849
7044, 46, 408, 591, 1877
7045, 1248, 1217, 968, 1881
7046, 1049, 1042, 1048, 1876
7047, 285, 446, 623, 1915
7048, 493, 360, 361, 1914
7049, 734, 1235, 30, 1863
7050, 46, 591, 420, 1877
7051, 995, 989, 994, 1708
7052, 681, 83, 502, 1852
7053, 255, 264, 257, 1900
7054, 435, 380, 434, 1846
7055, 114, 570, 440, 1889
7056, 1105, 734, 31, 1905
7057, 1066, 1257, 1044, 1909
7058, 1801, 1147, 1329, 1693
7059, 440, 520, 114, 1889
7060, 646, 506, 522, 1917
7061, 46, 246, 408, 1877
7062, 1801, 1329, 1147, 1247
7063, 1005, 1104, 1002, 1918
7064, 577, 358, 350, 1883
7065, 462, 337, 618, 1849
7066, 1706, 667, 231, 1698
7067, 52, 369, 695, 1880
7068, 1925, 879, 1024, 1255
7069, 1706, 231, 667, 644
7070, 1446, 1514, 1840, 1769
7071, 1446, 1514, 1769, 842
7072, 1324, 1840, 1769, 1446
7073, 1903, 1380, 1451, 1509
7074, 1590, 1776, 1562, 1335
7075, 1562, 1776, 1590, 1396
7076, 1863, 1466, 1292, 1507
7077, 1909, 1828, 1780, 1490
7078, 1754, 1626, 1545, 1261
7079, 1754, 1545, 1626, 1388
7080, 63, 1438, 1698, 61
7081, 63, 1438, 61, 58
7082, 1515, 1768, 791, 1305
7083, 1515, 791, 1768, 1680
7084, 1581, 784, 1426, 1680
*ELSET,ELSET=TENDON_BODY
1, 2, 3, 4, 5, 6, 7, 8, 9, 10, 
11, 12, 13, 14, 15, 16, 17, 18, 19, 20, 
21, 22, 23, 24, 25, 26, 27, 28, 29, 30, 
31, 32, 33, 34, 35, 36, 37, 38, 39, 40, 
41, 42, 43, 44, 45, 46, 47, 48, 49, 50, 
51, 52, 53, 54, 55, 56, 57, 58, 59, 60, 
61, 62, 63, 64, 65, 66, 67, 68, 69, 70, 
71, 72, 73, 74, 75, 76, 77, 78, 79, 80, 
81, 82, 83, 84, 85, 86, 87, 88, 89, 90, 
91, 92, 93, 94, 95, 96, 97, 98, 99, 100, 
101, 102, 103, 104, 105, 106, 107, 108, 109, 110, 
111, 112, 113, 114, 115, 116, 117, 118, 119, 120, 
121, 122, 123, 124, 125, 126, 127, 128, 129, 130, 
131, 132, 133, 134, 135, 136, 137, 138, 139, 140, 
141, 142, 143, 144, 145, 146, 147, 148, 149, 150, 
151, 152, 153, 154, 155, 156, 157, 158, 159, 160, 
161, 162, 163, 164, 165, 166, 167, 168, 169, 170, 
171, 172, 173, 174, 175, 176, 177, 178, 179, 180, 
181, 182, 183, 184, 185, 186, 187, 188, 189, 190, 
191, 192, 193, 194, 195, 196, 197, 198, 199, 200, 
201, 202, 203, 204, 205, 206, 207, 208, 209, 210, 
211, 212, 213, 214, 215, 216, 217, 218, 219, 220, 
221, 222, 223, 224, 225, 226, 227, 228, 229, 230, 
231, 232, 233, 234, 235, 236, 237, 238, 239, 240, 
241, 242, 243, 244, 245, 246, 247, 248, 249, 250, 
251, 252, 253, 254, 255, 256, 257, 258, 259, 260, 
261, 262, 263, 264, 265, 266, 267, 268, 269, 270, 
271, 272, 273, 274, 275, 276, 277, 278, 279, 280, 
281, 282, 283, 284, 285, 286, 287, 288, 289, 290, 
291, 292, 293, 294, 295, 296, 297, 298, 299, 300, 
301, 302, 303, 304, 305, 306, 307, 308, 309, 310, 
311, 312, 313, 314, 315, 316, 317, 318, 319, 320, 
321, 322, 323, 324, 325, 326, 327, 328, 329, 330, 
331, 332, 333, 334, 335, 336, 337, 338, 339, 340, 
341, 342, 343, 344, 345, 346, 347, 348, 349, 350, 
351, 352, 353, 354, 355, 356, 357, 358, 359, 360, 
361, 362, 363, 364, 365, 366, 367, 368, 369, 370, 
371, 372, 373, 374, 375, 376, 377, 378, 379, 380, 
381, 382, 383, 384, 385, 386, 387, 388, 389, 390, 
391, 392, 393, 394, 395, 396, 397, 398, 399, 400, 
401, 402, 403, 404, 405, 406, 407, 408, 409, 410, 
411, 412, 413, 414, 415, 416, 417, 418, 419, 420, 
421, 422, 423, 424, 425, 426, 427, 428, 429, 430, 
431, 432, 433, 434, 435, 436, 437, 438, 439, 440, 
441, 442, 443, 444, 445, 446, 447, 448, 449, 450, 
451, 452, 453, 454, 455, 456, 457, 458, 459, 460, 
461, 462, 463, 464, 465, 466, 467, 468, 469, 470, 
471, 472, 473, 474, 475, 476, 477, 478, 479, 480, 
481, 482, 483, 484, 485, 486, 487, 488, 489, 490, 
491, 492, 493, 494, 495, 496, 497, 498, 499, 500, 
501, 502, 503, 504, 505, 506, 507, 508, 509, 510, 
511, 512, 513, 514, 515, 516, 517, 518, 519, 520, 
521, 522, 523, 524, 525, 526, 527, 528, 529, 530, 
531, 532, 533, 534, 535, 536, 537, 538, 539, 540, 
541, 542, 543, 544, 545, 546, 547, 548, 549, 550, 
551, 552, 553, 554, 555, 556, 557, 558, 559, 560, 
561, 562, 563, 564, 565, 566, 567, 568, 569, 570, 
571, 572, 573, 574, 575, 576, 577, 578, 579, 580, 
581, 582, 583, 584, 585, 586, 587, 588, 589, 590, 
591, 592, 593, 594, 595, 596, 597, 598, 599, 600, 
601, 602, 603, 604, 605, 606, 607, 608, 609, 610, 
611, 612, 613, 614, 615, 616, 617, 618, 619, 620, 
621, 622, 623, 624, 625, 626, 627, 628, 629, 630, 
631, 632, 633, 634, 635, 636, 637, 638, 639, 640, 
641, 642, 643, 644, 645, 646, 647, 648, 649, 650, 
651, 652, 653, 654, 655, 656, 657, 658, 659, 660, 
661, 662, 663, 664, 665, 666, 667, 668, 669, 670, 
671, 672, 673, 674, 675, 676, 677, 678, 679, 680, 
681, 682, 683, 684, 685, 686, 687, 688, 689, 690, 
691, 692, 693, 694, 695, 696, 697, 698, 699, 700, 
701, 702, 703, 704, 705, 706, 707, 708, 709, 710, 
711, 712, 713, 714, 715, 716, 717, 718, 719, 720, 
721, 722, 723, 724, 725, 726, 727, 728, 729, 730, 
731, 732, 733, 734, 735, 736, 737, 738, 739, 740, 
741, 742, 743, 744, 745, 746, 747, 748, 749, 750, 
751, 752, 753, 754, 755, 756, 757, 758, 759, 760, 
761, 762, 763, 764, 765, 766, 767, 768, 769, 770, 
771, 772, 773, 774, 775, 776, 777, 778, 779, 780, 
781, 782, 783, 784, 785, 786, 787, 788, 789, 790, 
791, 792, 793, 794, 795, 796, 797, 798, 799, 800, 
801, 802, 803, 804, 805, 806, 807, 808, 809, 810, 
811, 812, 813, 814, 815, 816, 817, 818, 819, 820, 
821, 822, 823, 824, 825, 826, 827, 828, 829, 830, 
831, 832, 833, 834, 835, 836, 837, 838, 839, 840, 
841, 842, 843, 844, 845, 846, 847, 848, 849, 850, 
851, 852, 853, 854, 855, 856, 857, 858, 859, 860, 
861, 862, 863, 864, 865, 866, 867, 868, 869, 870, 
871, 872, 873, 874, 875, 876, 877, 878, 879, 880, 
881, 882, 883, 884, 885, 886, 887, 888, 889, 890, 
891, 892, 893, 894, 895, 896, 897, 898, 899, 900, 
901, 902, 903, 904, 905, 906, 907, 908, 909, 910, 
911, 912, 913, 914, 915, 916, 917, 918, 919, 920, 
921, 922, 923, 924, 925, 926, 927, 928, 929, 930, 
931, 932, 933, 934, 935, 936, 937, 938, 939, 940, 
941, 942, 943, 944, 945, 946, 947, 948, 949, 950, 
951, 952, 953, 954, 955, 956, 957, 958, 959, 960, 
961, 962, 963, 964, 965, 966, 967, 968, 969, 970, 
971, 972, 973, 974, 975, 976, 977, 978, 979, 980, 
981, 982, 983, 984, 985, 986, 987, 988, 989, 990, 
991, 992, 993, 994, 995, 996, 997, 998, 999, 1000, 
1001, 1002, 1003, 1004, 1005, 1006, 1007, 1008, 1009, 1010, 
1011, 1012, 1013, 1014, 1015, 1016, 1017, 1018, 1019, 1020, 
1021, 1022, 1023, 1024, 1025, 1026, 1027, 1028, 1029, 1030, 
1031, 1032, 1033, 1034, 1035, 1036, 1037, 1038, 1039, 1040, 
1041, 1042, 1043, 1044, 1045, 1046, 1047, 1048, 1049, 1050, 
1051, 1052, 1053, 1054, 1055, 1056, 1057, 1058, 1059, 1060, 
1061, 1062, 1063, 1064, 1065, 1066, 1067, 1068, 1069, 1070, 
1071, 1072, 1073, 1074, 1075, 1076, 1077, 1078, 1079, 1080, 
1081, 1082, 1083, 1084, 1085, 1086, 1087, 1088, 1089, 1090, 
1091, 1092, 1093, 1094, 1095, 1096, 1097, 1098, 1099, 1100, 
1101, 1102, 1103, 1104, 1105, 1106, 1107, 1108, 1109, 1110, 
1111, 1112, 1113, 1114, 1115, 1116, 1117, 1118, 1119, 1120, 
1121, 1122, 1123, 1124, 1125, 1126, 1127, 1128, 1129, 1130, 
1131, 1132, 1133, 1134, 1135, 1136, 1137, 1138, 1139, 1140, 
1141, 1142, 1143, 1144, 1145, 1146, 1147, 1148, 1149, 1150, 
1151, 1152, 1153, 1154, 1155, 1156, 1157, 1158, 1159, 1160, 
1161, 1162, 1163, 1164, 1165, 1166, 1167, 1168, 1169, 1170, 
1171, 1172, 1173, 1174, 1175, 1176, 1177, 1178, 1179, 1180, 
1181, 1182, 1183, 1184, 1185, 1186, 1187, 1188, 1189, 1190, 
1191, 1192, 1193, 1194, 1195, 1196, 1197, 1198, 1199, 1200, 
1201, 1202, 1203, 1204, 1205, 1206, 1207, 1208, 1209, 1210, 
1211, 1212, 1213, 1214, 1215, 1216, 1217, 1218, 1219, 1220, 
1221, 1222, 1223, 1224, 1225, 1226, 1227, 1228, 1229, 1230, 
1231, 1232, 1233, 1234, 1235, 1236, 1237, 1238, 1239, 1240, 
1241, 1242, 1243, 1244, 1245, 1246, 1247, 1248, 1249, 1250, 
1251, 1252, 1253, 1254, 1255, 1256, 1257, 1258, 1259, 1260, 
1261, 1262, 1263, 1264, 1265, 1266, 1267, 1268, 1269, 1270, 
1271, 1272, 1273, 1274, 1275, 1276, 1277, 1278, 1279, 1280, 
1281, 1282, 1283, 1284, 1285, 1286, 1287, 1288, 1289, 1290, 
1291, 1292, 1293, 1294, 1295, 1296, 1297, 1298, 1299, 1300, 
1301, 1302, 1303, 1304, 1305, 1306, 1307, 1308, 1309, 1310, 
1311, 1312, 1313, 1314, 1315, 1316, 1317, 1318, 1319, 1320, 
1321, 1322, 1323, 1324, 1325, 1326, 1327, 1328, 1329, 1330, 
1331, 1332, 1333, 1334, 1335, 1336, 1337, 1338, 1339, 1340, 
1341, 1342, 1343, 1344, 1345, 1346, 1347, 1348, 1349, 1350, 
1351, 1352, 1353, 1354, 1355, 1356, 1357, 1358, 1359, 1360, 
1361, 1362, 1363, 1364, 1365, 1366, 1367, 1368, 1369, 1370, 
1371, 1372, 1373, 1374, 1375, 1376, 1377, 1378, 1379, 1380, 
1381, 1382, 1383, 1384, 1385, 1386, 1387, 1388, 1389, 1390, 
1391, 1392, 1393, 1394, 1395, 1396, 1397, 1398, 1399, 1400, 
1401, 1402, 1403, 1404, 1405, 1406, 1407, 1408, 1409, 1410, 
1411, 1412, 1413, 1414, 1415, 1416, 1417, 1418, 1419, 1420, 
1421, 1422, 1423, 1424, 1425, 1426, 1427, 1428, 1429, 1430, 
1431, 1432, 1433, 1434, 1435, 1436, 1437, 1438, 1439, 1440, 
1441, 1442, 1443, 1444, 1445, 1446, 1447, 1448, 1449, 1450, 
1451, 1452, 1453, 1454, 1455, 1456, 1457, 1458, 1459, 1460, 
1461, 1462, 1463, 1464, 1465, 1466, 1467, 1468, 1469, 1470, 
1471, 1472, 1473, 1474, 1475, 1476, 1477, 1478, 1479, 1480, 
1481, 1482, 1483, 1484, 1485, 1486, 1487, 1488, 1489, 1490, 
1491, 1492, 1493, 1494, 1495, 1496, 1497, 1498, 1499, 1500, 
1501, 1502, 1503, 1504, 1505, 1506, 1507, 1508, 1509, 1510, 
1511, 1512, 1513, 1514, 1515, 1516, 1517, 1518, 1519, 1520, 
1521, 1522, 1523, 1524, 1525, 1526, 1527, 1528, 1529, 1530, 
1531, 1532, 1533, 1534, 1535, 1536, 1537, 1538, 1539, 1540, 
1541, 1542, 1543, 1544, 1545, 1546, 1547, 1548, 1549, 1550, 
1551, 1552, 1553, 1554, 1555, 1556, 1557, 1558, 1559, 1560, 
1561, 1562, 1563, 1564, 1565, 1566, 1567, 1568, 1569, 1570, 
1571, 1572, 1573, 1574, 1575, 1576, 1577, 1578, 1579, 1580, 
1581, 1582, 1583, 1584, 1585, 1586, 1587, 1588, 1589, 1590, 
1591, 1592, 1593, 1594, 1595, 1596, 1597, 1598, 1599, 1600, 
1601, 1602, 1603, 1604, 1605, 1606, 1607, 1608, 1609, 1610, 
1611, 1612, 1613, 1614, 1615, 1616, 1617, 1618, 1619, 1620, 
1621, 1622, 1623, 1624, 1625, 1626, 1627, 1628, 1629, 1630, 
1631, 1632, 1633, 1634, 1635, 1636, 1637, 1638, 1639, 1640, 
1641, 1642, 1643, 1644, 1645, 1646, 1647, 1648, 1649, 1650, 
1651, 1652, 1653, 1654, 1655, 1656, 1657, 1658, 1659, 1660, 
1661, 1662, 1663, 1664, 1665, 1666, 1667, 1668, 1669, 1670, 
1671, 1672, 1673, 1674, 1675, 1676, 1677, 1678, 1679, 1680, 
1681, 1682, 1683, 1684, 1685, 1686, 1687, 1688, 1689, 1690, 
1691, 1692, 1693, 1694, 1695, 1696, 1697, 1698, 1699, 1700, 
1701, 1702, 1703, 1704, 1705, 1706, 1707, 1708, 1709, 1710, 
1711, 1712, 1713, 1714, 1715, 1716, 1717, 1718, 1719, 1720, 
1721, 1722, 1723, 1724, 1725, 1726, 1727, 1728, 1729, 1730, 
1731, 1732, 1733, 1734, 1735, 1736, 1737, 1738, 1739, 1740, 
1741, 1742, 1743, 1744, 1745, 1746, 1747, 1748, 1749, 1750, 
1751, 1752, 1753, 1754, 1755, 1756, 1757, 1758, 1759, 1760, 
1761, 1762, 1763, 1764, 1765, 1766, 1767, 1768, 1769, 1770, 
1771, 1772, 1773, 1774, 1775, 1776, 1777, 1778, 1779, 1780, 
1781, 1782, 1783, 1784, 1785, 1786, 1787, 1788, 1789, 1790, 
1791, 1792, 1793, 1794, 1795, 1796, 1797, 1798, 1799, 1800, 
1801, 1802, 1803, 1804, 1805, 1806, 1807, 1808, 1809, 1810, 
1811, 1812, 1813, 1814, 1815, 1816, 1817, 1818, 1819, 1820, 
1821, 1822, 1823, 1824, 1825, 1826, 1827, 1828, 1829, 1830, 
1831, 1832, 1833, 1834, 1835, 1836, 1837, 1838, 1839, 1840, 
1841, 1842, 1843, 1844, 1845, 1846, 1847, 1848, 1849, 1850, 
1851, 1852, 1853, 1854, 1855, 1856, 1857, 1858, 1859, 1860, 
1861, 1862, 1863, 1864, 1865, 1866, 1867, 1868, 1869, 1870, 
1871, 1872, 1873, 1874, 1875, 1876, 1877, 1878, 1879, 1880, 
1881, 1882, 1883, 1884, 1885, 1886, 1887, 1888, 1889, 1890, 
1891, 1892, 1893, 1894, 1895, 1896, 1897, 1898, 1899, 1900, 
1901, 1902, 1903, 1904, 1905, 1906, 1907, 1908, 1909, 1910, 
1911, 1912, 1913, 1914, 1915, 1916, 1917, 1918, 1919, 1920, 
1921, 1922, 1923, 1924, 1925, 1926, 1927, 1928, 1929, 1930, 
1931, 1932, 1933, 1934, 1935, 1936, 1937, 1938, 1939, 1940, 
1941, 1942, 1943, 1944, 1945, 1946, 1947, 1948, 1949, 1950, 
1951, 1952, 1953, 1954, 1955, 1956, 1957, 1958, 1959, 1960, 
1961, 1962, 1963, 1964, 1965, 1966, 1967, 1968, 1969, 1970, 
1971, 1972, 1973, 1974, 1975, 1976, 1977, 1978, 1979, 1980, 
1981, 1982, 1983, 1984, 1985, 1986, 1987, 1988, 1989, 1990, 
1991, 1992, 1993, 1994, 1995, 1996, 1997, 1998, 1999, 2000, 
2001, 2002, 2003, 2004, 2005, 2006, 2007, 2008, 2009, 2010, 
2011, 2012, 2013, 2014, 2015, 2016, 2017, 2018, 2019, 2020, 
2021, 2022, 2023, 2024, 2025, 2026, 2027, 2028, 2029, 2030, 
2031, 2032, 2033, 2034, 2035, 2036, 2037, 2038, 2039, 2040, 
2041, 2042, 2043, 2044, 2045, 2046, 2047, 2048, 2049, 2050, 
2051, 2052, 2053, 2054, 2055, 2056, 2057, 2058, 2059, 2060, 
2061, 2062, 2063, 2064, 2065, 2066, 2067, 2068, 2069, 2070, 
2071, 2072, 2073, 2074, 2075, 2076, 2077, 2078, 2079, 2080, 
2081, 2082, 2083, 2084, 2085, 2086, 2087, 2088, 2089, 2090, 
2091, 2092, 2093, 2094, 2095, 2096, 2097, 2098, 2099, 2100, 
2101, 2102, 2103, 2104, 2105, 2106, 2107, 2108, 2109, 2110, 
2111, 2112, 2113, 2114, 2115, 2116, 2117, 2118, 2119, 2120, 
2121, 2122, 2123, 2124, 2125, 2126, 2127, 2128, 2129, 2130, 
2131, 2132, 2133, 2134, 2135, 2136, 2137, 2138, 2139, 2140, 
2141, 2142, 2143, 2144, 2145, 2146, 2147, 2148, 2149, 2150, 
2151, 2152, 2153, 2154, 2155, 2156, 2157, 2158, 2159, 2160, 
2161, 2162, 2163, 2164, 2165, 2166, 2167, 2168, 2169, 2170, 
2171, 2172, 2173, 2174, 2175, 2176, 2177, 2178, 2179, 2180, 
2181, 2182, 2183, 2184, 2185, 2186, 2187, 2188, 2189, 2190, 
2191, 2192, 2193, 2194, 2195, 2196, 2197, 2198, 2199, 2200, 
2201, 2202, 2203, 2204, 2205, 2206, 2207, 2208, 2209, 2210, 
2211, 2212, 2213, 2214, 2215, 2216, 2217, 2218, 2219, 2220, 
2221, 2222, 2223, 2224, 2225, 2226, 2227, 2228, 2229, 2230, 
2231, 2232, 2233, 2234, 2235, 2236, 2237, 2238, 2239, 2240, 
2241, 2242, 2243, 2244, 2245, 2246, 2247, 2248, 2249, 2250, 
2251, 2252, 2253, 2254, 2255, 2256, 2257, 2258, 2259, 2260, 
2261, 2262, 2263, 2264, 2265, 2266, 2267, 2268, 2269, 2270, 
2271, 2272, 2273, 2274, 2275, 2276, 2277, 2278, 2279, 2280, 
2281, 2282, 2283, 2284, 2285, 2286, 2287, 2288, 2289, 2290, 
2291, 2292, 2293, 2294, 2295, 2296, 2297, 2298, 2299, 2300, 
2301, 2302, 2303, 2304, 2305, 2306, 2307, 2308, 2309, 2310, 
2311, 2312, 2313, 2314, 2315, 2316, 2317, 2318, 2319, 2320, 
2321, 2322, 2323, 2324, 2325, 2326, 2327, 2328, 2329, 2330, 
2331, 2332, 2333, 2334, 2335, 2336, 2337, 2338, 2339, 2340, 
2341, 2342, 2343, 2344, 2345, 2346, 2347, 2348, 2349, 2350, 
2351, 2352, 2353, 2354, 2355, 2356, 2357, 2358, 2359, 2360, 
2361, 2362, 2363, 2364, 2365, 2366, 2367, 2368, 2369, 2370, 
2371, 2372, 2373, 2374, 2375, 2376, 2377, 2378, 2379, 2380, 
2381, 2382, 2383, 2384, 2385, 2386, 2387, 2388, 2389, 2390, 
2391, 2392, 2393, 2394, 2395, 2396, 2397, 2398, 2399, 2400, 
2401, 2402, 2403, 2404, 2405, 2406, 2407, 2408, 2409, 2410, 
2411, 2412, 2413, 2414, 2415, 2416, 2417, 2418, 2419, 2420, 
2421, 2422, 2423, 2424, 2425, 2426, 2427, 2428, 2429, 2430, 
2431, 2432, 2433, 2434, 2435, 2436, 2437, 2438, 2439, 2440, 
2441, 2442, 2443, 2444, 2445, 2446, 2447, 2448, 2449, 2450, 
2451, 2452, 2453, 2454, 2455, 2456, 2457, 2458, 2459, 2460, 
2461, 2462, 2463, 2464, 2465, 2466, 2467, 2468, 2469, 2470, 
2471, 2472, 2473, 2474, 2475, 2476, 2477, 2478, 2479, 2480, 
2481, 2482, 2483, 2484, 2485, 2486, 2487, 2488, 2489, 2490, 
2491, 2492, 2493, 2494, 2495, 2496, 2497, 2498, 2499, 2500, 
2501, 2502, 2503, 2504, 2505, 2506, 2507, 2508, 2509, 2510, 
2511, 2512, 2513, 2514, 2515, 2516, 2517, 2518, 2519, 2520, 
2521, 2522, 2523, 2524, 2525, 2526, 2527, 2528, 2529, 2530, 
2531, 2532, 2533, 2534, 2535, 2536, 2537, 2538, 2539, 2540, 
2541, 2542, 2543, 2544, 2545, 2546, 2547, 2548, 2549, 2550, 
2551, 2552, 2553, 2554, 2555, 2556, 2557, 2558, 2559, 2560, 
2561, 2562, 2563, 2564, 2565, 2566, 2567, 2568, 2569, 2570, 
2571, 2572, 2573, 2574, 2575, 2576, 2577, 2578, 2579, 2580, 
2581, 2582, 2583, 2584, 2585, 2586, 2587, 2588, 2589, 2590, 
2591, 2592, 2593, 2594, 2595, 2596, 2597, 2598, 2599, 2600, 
2601, 2602, 2603, 2604, 2605, 2606, 2607, 2608, 2609, 2610, 
2611, 2612, 2613, 2614, 2615, 2616, 2617, 2618, 2619, 2620, 
2621, 2622, 2623, 2624, 2625, 2626, 2627, 2628, 2629, 2630, 
2631, 2632, 2633, 2634, 2635, 2636, 2637, 2638, 2639, 2640, 
2641, 2642, 2643, 2644, 2645, 2646, 2647, 2648, 2649, 2650, 
2651, 2652, 2653, 2654, 2655, 2656, 2657, 2658, 2659, 2660, 
2661, 2662, 2663, 2664, 2665, 2666, 2667, 2668, 2669, 2670, 
2671, 2672, 2673, 2674, 2675, 2676, 2677, 2678, 2679, 2680, 
2681, 2682, 2683, 2684, 2685, 2686, 2687, 2688, 2689, 2690, 
2691, 2692, 2693, 2694, 2695, 2696, 2697, 2698, 2699, 2700, 
2701, 2702, 2703, 2704, 2705, 2706, 2707, 2708, 2709, 2710, 
2711, 2712, 2713, 2714, 2715, 2716, 2717, 2718, 2719, 2720, 
2721, 2722, 2723, 2724, 2725, 2726, 2727, 2728, 2729, 2730, 
2731, 2732, 2733, 2734, 2735, 2736, 2737, 2738, 2739, 2740, 
2741, 2742, 2743, 2744, 2745, 2746, 2747, 2748, 2749, 2750, 
2751, 2752, 2753, 2754, 2755, 2756, 2757, 2758, 2759, 2760, 
2761, 2762, 2763, 2764, 2765, 2766, 2767, 2768, 2769, 2770, 
2771, 2772, 2773, 2774, 2775, 2776, 2777, 2778, 2779, 2780, 
2781, 2782, 2783, 2784, 2785, 2786, 2787, 2788, 2789, 2790, 
2791, 2792, 2793, 2794, 2795, 2796, 2797, 2798, 2799, 2800, 
2801, 2802, 2803, 2804, 2805, 2806, 2807, 2808, 2809, 2810, 
2811, 2812, 2813, 2814, 2815, 2816, 2817, 2818, 2819, 2820, 
2821, 2822, 2823, 2824, 2825, 2826, 2827, 2828, 2829, 2830, 
2831, 2832, 2833, 2834, 2835, 2836, 2837, 2838, 2839, 2840, 
2841, 2842, 2843, 2844, 2845, 2846, 2847, 2848, 2849, 2850, 
2851, 2852, 2853, 2854, 2855, 2856, 2857, 2858, 2859, 2860, 
2861, 2862, 2863, 2864, 2865, 2866, 2867, 2868, 2869, 2870, 
2871, 2872, 2873, 2874, 2875, 2876, 2877, 2878, 2879, 2880, 
2881, 2882, 2883, 2884, 2885, 2886, 2887, 2888, 2889, 2890, 
2891, 2892, 2893, 2894, 2895, 2896, 2897, 2898, 2899, 2900, 
2901, 2902, 2903, 2904, 2905, 2906, 2907, 2908, 2909, 2910, 
2911, 2912, 2913, 2914, 2915, 2916, 2917, 2918, 2919, 2920, 
2921, 2922, 2923, 2924, 2925, 2926, 2927, 2928, 2929, 2930, 
2931, 2932, 2933, 2934, 2935, 2936, 2937, 2938, 2939, 2940, 
2941, 2942, 2943, 2944, 2945, 2946, 2947, 2948, 2949, 2950, 
2951, 2952, 2953, 2954, 2955, 2956, 2957, 2958, 2959, 2960, 
2961, 2962, 2963, 2964, 2965, 2966, 2967, 2968, 2969, 2970, 
2971, 2972, 2973, 2974, 2975, 2976, 2977, 2978, 2979, 2980, 
2981, 2982, 2983, 2984, 2985, 2986, 2987, 2988, 2989, 2990, 
2991, 2992, 2993, 2994, 2995, 2996, 2997, 2998, 2999, 3000, 
3001, 3002, 3003, 3004, 3005, 3006, 3007, 3008, 3009, 3010, 
3011, 3012, 3013, 3014, 3015, 3016, 3017, 3018, 3019, 3020, 
3021, 3022, 3023, 3024, 3025, 3026, 3027, 3028, 3029, 3030, 
3031, 3032, 3033, 3034, 3035, 3036, 3037, 3038, 3039, 3040, 
3041, 3042, 3043, 3044, 3045, 3046, 3047, 3048, 3049, 3050, 
3051, 3052, 3053, 3054, 3055, 3056, 3057, 3058, 3059, 3060, 
3061, 3062, 3063, 3064, 3065, 3066, 3067, 3068, 3069, 3070, 
3071, 3072, 3073, 3074, 3075, 3076, 3077, 3078, 3079, 3080, 
3081, 3082, 3083, 3084, 3085, 3086, 3087, 3088, 3089, 3090, 
3091, 3092, 3093, 3094, 3095, 3096, 3097, 3098, 3099, 3100, 
3101, 3102, 3103, 3104, 3105, 3106, 3107, 3108, 3109, 3110, 
3111, 3112, 3113, 3114, 3115, 3116, 3117, 3118, 3119, 3120, 
3121, 3122, 3123, 3124, 3125, 3126, 3127, 3128, 3129, 3130, 
3131, 3132, 3133, 3134, 3135, 3136, 3137, 3138, 3139, 3140, 
3141, 3142, 3143, 3144, 3145, 3146, 3147, 3148, 3149, 3150, 
3151, 3152, 3153, 3154, 3155, 3156, 3157, 3158, 3159, 3160, 
3161, 3162, 3163, 3164, 3165, 3166, 3167, 3168, 3169, 3170, 
3171, 3172, 3173, 3174, 3175, 3176, 3177, 3178, 3179, 3180, 
3181, 3182, 3183, 3184, 3185, 3186, 3187, 3188, 3189, 3190, 
3191, 3192, 3193, 3194, 3195, 3196, 3197, 3198, 3199, 3200, 
3201, 3202, 3203, 3204, 3205, 3206, 3207, 3208, 3209, 3210, 
3211, 3212, 3213, 3214, 3215, 3216, 3217, 3218, 3219, 3220, 
3221, 3222, 3223, 3224, 3225, 3226, 3227, 3228, 3229, 3230, 
3231, 3232, 3233, 3234, 3235, 3236, 3237, 3238, 3239, 3240, 
3241, 3242, 3243, 3244, 3245, 3246, 3247, 3248, 3249, 3250, 
3251, 3252, 3253, 3254, 3255, 3256, 3257, 3258, 3259, 3260, 
3261, 3262, 3263, 3264, 3265, 3266, 3267, 3268, 3269, 3270, 
3271, 3272, 3273, 3274, 3275, 3276, 3277, 3278, 3279, 3280, 
3281, 3282, 3283, 3284, 3285, 3286, 3287, 3288, 3289, 3290, 
3291, 3292, 3293, 3294, 3295, 3296, 3297, 3298, 3299, 3300, 
3301, 3302, 3303, 3304, 3305, 3306, 3307, 3308, 3309, 3310, 
3311, 3312, 3313, 3314, 3315, 3316, 3317, 3318, 3319, 3320, 
3321, 3322, 3323, 3324, 3325, 3326, 3327, 3328, 3329, 3330, 
3331, 3332, 3333, 3334, 3335, 3336, 3337, 3338, 3339, 3340, 
3341, 3342, 3343, 3344, 3345, 3346, 3347, 3348, 3349, 3350, 
3351, 3352, 3353, 3354, 3355, 3356, 3357, 3358, 3359, 3360, 
3361, 3362, 3363, 3364, 3365, 3366, 3367, 3368, 3369, 3370, 
3371, 3372, 3373, 3374, 3375, 3376, 3377, 3378, 3379, 3380, 
3381, 3382, 3383, 3384, 3385, 3386, 3387, 3388, 3389, 3390, 
3391, 3392, 3393, 3394, 3395, 3396, 3397, 3398, 3399, 3400, 
3401, 3402, 3403, 3404, 3405, 3406, 3407, 3408, 3409, 3410, 
3411, 3412, 3413, 3414, 3415, 3416, 3417, 3418, 3419, 3420, 
3421, 3422, 3423, 3424, 3425, 3426, 3427, 3428, 3429, 3430, 
3431, 3432, 3433, 3434, 3435, 3436, 3437, 3438, 3439, 3440, 
3441, 3442, 3443, 3444, 3445, 3446, 3447, 3448, 3449, 3450, 
3451, 3452, 3453, 3454, 3455, 3456, 3457, 3458, 3459, 3460, 
3461, 3462, 3463, 3464, 3465, 3466, 3467, 3468, 3469, 3470, 
3471, 3472, 3473, 3474, 3475, 3476, 3477, 3478, 3479, 3480, 
3481, 3482, 3483, 3484, 3485, 3486, 3487, 3488, 3489, 3490, 
3491, 3492, 3493, 3494, 3495, 3496, 3497, 3498, 3499, 3500, 
3501, 3502, 3503, 3504, 3505, 3506, 3507, 3508, 3509, 3510, 
3511, 3512, 3513, 3514, 3515, 3516, 3517, 3518, 3519, 3520, 
3521, 3522, 3523, 3524, 3525, 3526, 3527, 3528, 3529, 3530, 
3531, 3532, 3533, 3534, 3535, 3536, 3537, 3538, 3539, 3540, 
3541, 3542, 3543, 3544, 3545, 3546, 3547, 3548, 3549, 3550, 
3551, 3552, 3553, 3554, 3555, 3556, 3557, 3558, 3559, 3560, 
3561, 3562, 3563, 3564, 3565, 3566, 3567, 3568, 3569, 3570, 
3571, 3572, 3573, 3574, 3575, 3576, 3577, 3578, 3579, 3580, 
3581, 3582, 3583, 3584, 3585, 3586, 3587, 3588, 3589, 3590, 
3591, 3592, 3593, 3594, 3595, 3596, 3597, 3598, 3599, 3600, 
3601, 3602, 3603, 3604, 3605, 3606, 3607, 3608, 3609, 3610, 
3611, 3612, 3613, 3614, 3615, 3616, 3617, 3618, 3619, 3620, 
3621, 3622, 3623, 3624, 3625, 3626, 3627, 3628, 3629, 3630, 
3631, 3632, 3633, 3634, 3635, 3636, 3637, 3638, 3639, 3640, 
3641, 3642, 3643, 3644, 3645, 3646, 3647, 3648, 3649, 3650, 
3651, 3652, 3653, 3654, 3655, 3656, 3657, 3658, 3659, 3660, 
3661, 3662, 3663, 3664, 3665, 3666, 3667, 3668, 3669, 3670, 
3671, 3672, 3673, 3674, 3675, 3676, 3677, 3678, 3679, 3680, 
3681, 3682, 3683, 3684, 3685, 3686, 3687, 3688, 3689, 3690, 
3691, 3692, 3693, 3694, 3695, 3696, 3697, 3698, 3699, 3700, 
3701, 3702, 3703, 3704, 3705, 3706, 3707, 3708, 3709, 3710, 
3711, 3712, 3713, 3714, 3715, 3716, 3717, 3718, 3719, 3720, 
3721, 3722, 3723, 3724, 3725, 3726, 3727, 3728, 3729, 3730, 
3731, 3732, 3733, 3734, 3735, 3736, 3737, 3738, 3739, 3740, 
3741, 3742, 3743, 3744, 3745, 3746, 3747, 3748, 3749, 3750, 
3751, 3752, 3753, 3754, 3755, 3756, 3757, 3758, 3759, 3760, 
3761, 3762, 3763, 3764, 3765, 3766, 3767, 3768, 3769, 3770, 
3771, 3772, 3773, 3774, 3775, 3776, 3777, 3778, 3779, 3780, 
3781, 3782, 3783, 3784, 3785, 3786, 3787, 3788, 3789, 3790, 
3791, 3792, 3793, 3794, 3795, 3796, 3797, 3798, 3799, 3800, 
3801, 3802, 3803, 3804, 3805, 3806, 3807, 3808, 3809, 3810, 
3811, 3812, 3813, 3814, 3815, 3816, 3817, 3818, 3819, 3820, 
3821, 3822, 3823, 3824, 3825, 3826, 3827, 3828, 3829, 3830, 
3831, 3832, 3833, 3834, 3835, 3836, 3837, 3838, 3839, 3840, 
3841, 3842, 3843, 3844, 3845, 3846, 3847, 3848, 3849, 3850, 
3851, 3852, 3853, 3854, 3855, 3856, 3857, 3858, 3859, 3860, 
3861, 3862, 3863, 3864, 3865, 3866, 3867, 3868, 3869, 3870, 
3871, 3872, 3873, 3874, 3875, 3876, 3877, 3878, 3879, 3880, 
3881, 3882, 3883, 3884, 3885, 3886, 3887, 3888, 3889, 3890, 
3891, 3892, 3893, 3894, 3895, 3896, 3897, 3898, 3899, 3900, 
3901, 3902, 3903, 3904, 3905, 3906, 3907, 3908, 3909, 3910, 
3911, 3912, 3913, 3914, 3915, 3916, 3917, 3918, 3919, 3920, 
3921, 3922, 3923, 3924, 3925, 3926, 3927, 3928, 3929, 3930, 
3931, 3932, 3933, 3934, 3935, 3936, 3937, 3938, 3939, 3940, 
3941, 3942, 3943, 3944, 3945, 3946, 3947, 3948, 3949, 3950, 
3951, 3952, 3953, 3954, 3955, 3956, 3957, 3958, 3959, 3960, 
3961, 3962, 3963, 3964, 3965, 3966, 3967, 3968, 3969, 3970, 
3971, 3972, 3973, 3974, 3975, 3976, 3977, 3978, 3979, 3980, 
3981, 3982, 3983, 3984, 3985, 3986, 3987, 3988, 3989, 3990, 
3991, 3992, 3993, 3994, 3995, 3996, 3997, 3998, 3999, 4000, 
4001, 4002, 4003, 4004, 4005, 4006, 4007, 4008, 4009, 4010, 
4011, 4012, 4013, 4014, 4015, 4016, 4017, 4018, 4019, 4020, 
4021, 4022, 4023, 4024, 4025, 4026, 4027, 4028, 4029, 4030, 
4031, 4032, 4033, 4034, 4035, 4036, 4037, 4038, 4039, 4040, 
4041, 4042, 4043, 4044, 4045, 4046, 4047, 4048, 4049, 4050, 
4051, 4052, 4053, 4054, 4055, 4056, 4057, 4058, 4059, 4060, 
4061, 4062, 4063, 4064, 4065, 4066, 4067, 4068, 4069, 4070, 
4071, 4072, 4073, 4074, 4075, 4076, 4077, 4078, 4079, 4080, 
4081, 4082, 4083, 4084, 4085, 4086, 4087, 4088, 4089, 4090, 
4091, 4092, 4093, 4094, 4095, 4096, 4097, 4098, 4099, 4100, 
4101, 4102, 4103, 4104, 4105, 4106, 4107, 4108, 4109, 4110, 
4111, 4112, 4113, 4114, 4115, 4116, 4117, 4118, 4119, 4120, 
4121, 4122, 4123, 4124, 4125, 4126, 4127, 4128, 4129, 4130, 
4131, 4132, 4133, 4134, 4135, 4136, 4137, 4138, 4139, 4140, 
4141, 4142, 4143, 4144, 4145, 4146, 4147, 4148, 4149, 4150, 
4151, 4152, 4153, 4154, 4155, 4156, 4157, 4158, 4159, 4160, 
4161, 4162, 4163, 4164, 4165, 4166, 4167, 4168, 4169, 4170, 
4171, 4172, 4173, 4174, 4175, 4176, 4177, 4178, 4179, 4180, 
4181, 4182, 4183, 4184, 4185, 4186, 4187, 4188, 4189, 4190, 
4191, 4192, 4193, 4194, 4195, 4196, 4197, 4198, 4199, 4200, 
4201, 4202, 4203, 4204, 4205, 4206, 4207, 4208, 4209, 4210, 
4211, 4212, 4213, 4214, 4215, 4216, 4217, 4218, 4219, 4220, 
4221, 4222, 4223, 4224, 4225, 4226, 4227, 4228, 4229, 4230, 
4231, 4232, 4233, 4234, 4235, 4236, 4237, 4238, 4239, 4240, 
4241, 4242, 4243, 4244, 4245, 4246, 4247, 4248, 4249, 4250, 
4251, 4252, 4253, 4254, 4255, 4256, 4257, 4258, 4259, 4260, 
4261, 4262, 4263, 4264, 4265, 4266, 4267, 4268, 4269, 4270, 
4271, 4272, 4273, 4274, 4275, 4276, 4277, 4278, 4279, 4280, 
4281, 4282, 4283, 4284, 4285, 4286, 4287, 4288, 4289, 4290, 
4291, 4292, 4293, 4294, 4295, 4296, 4297, 4298, 4299, 4300, 
4301, 4302, 4303, 4304, 4305, 4306, 4307, 4308, 4309, 4310, 
4311, 4312, 4313, 4314, 4315, 4316, 4317, 4318, 4319, 4320, 
4321, 4322, 4323, 4324, 4325, 4326, 4327, 4328, 4329, 4330, 
4331, 4332, 4333, 4334, 4335, 4336, 4337, 4338, 4339, 4340, 
4341, 4342, 4343, 4344, 4345, 4346, 4347, 4348, 4349, 4350, 
4351, 4352, 4353, 4354, 4355, 4356, 4357, 4358, 4359, 4360, 
4361, 4362, 4363, 4364, 4365, 4366, 4367, 4368, 4369, 4370, 
4371, 4372, 4373, 4374, 4375, 4376, 4377, 4378, 4379, 4380, 
4381, 4382, 4383, 4384, 4385, 4386, 4387, 4388, 4389, 4390, 
4391, 4392, 4393, 4394, 4395, 4396, 4397, 4398, 4399, 4400, 
4401, 4402, 4403, 4404, 4405, 4406, 4407, 4408, 4409, 4410, 
4411, 4412, 4413, 4414, 4415, 4416, 4417, 4418, 4419, 4420, 
4421, 4422, 4423, 4424, 4425, 4426, 4427, 4428, 4429, 4430, 
4431, 4432, 4433, 4434, 4435, 4436, 4437, 4438, 4439, 4440, 
4441, 4442, 4443, 4444, 4445, 4446, 4447, 4448, 4449, 4450, 
4451, 4452, 4453, 4454, 4455, 4456, 4457, 4458, 4459, 4460, 
4461, 4462, 4463, 4464, 4465, 4466, 4467, 4468, 4469, 4470, 
4471, 4472, 4473, 4474, 4475, 4476, 4477, 4478, 4479, 4480, 
4481, 4482, 4483, 4484, 4485, 4486, 4487, 4488, 4489, 4490, 
4491, 4492, 4493, 4494, 4495, 4496, 4497, 4498, 4499, 4500, 
4501, 4502, 4503, 4504, 4505, 4506, 4507, 4508, 4509, 4510, 
4511, 4512, 4513, 4514, 4515, 4516, 4517, 4518, 4519, 4520, 
4521, 4522, 4523, 4524, 4525, 4526, 4527, 4528, 4529, 4530, 
4531, 4532, 4533, 4534, 4535, 4536, 4537, 4538, 4539, 4540, 
4541, 4542, 4543, 4544, 4545, 4546, 4547, 4548, 4549, 4550, 
4551, 4552, 4553, 4554, 4555, 4556, 4557, 4558, 4559, 4560, 
4561, 4562, 4563, 4564, 4565, 4566, 4567, 4568, 4569, 4570, 
4571, 4572, 4573, 4574, 4575, 4576, 4577, 4578, 4579, 4580, 
4581, 4582, 4583, 4584, 4585, 4586, 4587, 4588, 4589, 4590, 
4591, 4592, 4593, 4594, 4595, 4596, 4597, 4598, 4599, 4600, 
4601, 4602, 4603, 4604, 4605, 4606, 4607, 4608, 4609, 4610, 
4611, 4612, 4613, 4614, 4615, 4616, 4617, 4618, 4619, 4620, 
4621, 4622, 4623, 4624, 4625, 4626, 4627, 4628, 4629, 4630, 
4631, 4632, 4633, 4634, 4635, 4636, 4637, 4638, 4639, 4640, 
4641, 4642, 4643, 4644, 4645, 4646, 4647, 4648, 4649, 4650, 
4651, 4652, 4653, 4654, 4655, 4656, 4657, 4658, 4659, 4660, 
4661, 4662, 4663, 4664, 4665, 4666, 4667, 4668, 4669, 4670, 
4671, 4672, 4673, 4674, 4675, 4676, 4677, 4678, 4679, 4680, 
4681, 4682, 4683, 4684, 4685, 4686, 4687, 4688, 4689, 4690, 
4691, 4692, 4693, 4694, 4695, 4696, 4697, 4698, 4699, 4700, 
4701, 4702, 4703, 4704, 4705, 4706, 4707, 4708, 4709, 4710, 
4711, 4712, 4713, 4714, 4715, 4716, 4717, 4718, 4719, 4720, 
4721, 4722, 4723, 4724, 4725, 4726, 4727, 4728, 4729, 4730, 
4731, 4732, 4733, 4734, 4735, 4736, 4737, 4738, 4739, 4740, 
4741, 4742, 4743, 4744, 4745, 4746, 4747, 4748, 4749, 4750, 
4751, 4752, 4753, 4754, 4755, 4756, 4757, 4758, 4759, 4760, 
4761, 4762, 4763, 4764, 4765, 4766, 4767, 4768, 4769, 4770, 
4771, 4772, 4773, 4774, 4775, 4776, 4777, 4778, 4779, 4780, 
4781, 4782, 4783, 4784, 4785, 4786, 4787, 4788, 4789, 4790, 
4791, 4792, 4793, 4794, 4795, 4796, 4797, 4798, 4799, 4800, 
4801, 4802, 4803, 4804, 4805, 4806, 4807, 4808, 4809, 4810, 
4811, 4812, 4813, 4814, 4815, 4816, 4817, 4818, 4819, 4820, 
4821, 4822, 4823, 4824, 4825, 4826, 4827, 4828, 4829, 4830, 
4831, 4832, 4833, 4834, 4835, 4836, 4837, 4838, 4839, 4840, 
4841, 4842, 4843, 4844, 4845, 4846, 4847, 4848, 4849, 4850, 
4851, 4852, 4853, 4854, 4855, 4856, 4857, 4858, 4859, 4860, 
4861, 4862, 4863, 4864, 4865, 4866, 4867, 4868, 4869, 4870, 
4871, 4872, 4873, 4874, 4875, 4876, 4877, 4878, 4879, 4880, 
4881, 4882, 4883, 4884, 4885, 4886, 4887, 4888, 4889, 4890, 
4891, 4892, 4893, 4894, 4895, 4896, 4897, 4898, 4899, 4900, 
4901, 4902, 4903, 4904, 4905, 4906, 4907, 4908, 4909, 4910, 
4911, 4912, 4913, 4914, 4915, 4916, 4917, 4918, 4919, 4920, 
4921, 4922, 4923, 4924, 4925, 4926, 4927, 4928, 4929, 4930, 
4931, 4932, 4933, 4934, 4935, 4936, 4937, 4938, 4939, 4940, 
4941, 4942, 4943, 4944, 4945, 4946, 4947, 4948, 4949, 4950, 
4951, 4952, 4953, 4954, 4955, 4956, 4957, 4958, 4959, 4960, 
4961, 4962, 4963, 4964, 4965, 4966, 4967, 4968, 4969, 4970, 
4971, 4972, 4973, 4974, 4975, 4976, 4977, 4978, 4979, 4980, 
4981, 4982, 4983, 4984, 4985, 4986, 4987, 4988, 4989, 4990, 
4991, 4992, 4993, 4994, 4995, 4996, 4997, 4998, 4999, 5000, 
5001, 5002, 5003, 5004, 5005, 5006, 5007, 5008, 5009, 5010, 
5011, 5012, 5013, 5014, 5015, 5016, 5017, 5018, 5019, 5020, 
5021, 5022, 5023, 5024, 5025, 5026, 5027, 5028, 5029, 5030, 
5031, 5032, 5033, 5034, 5035, 5036, 5037, 5038, 5039, 5040, 
5041, 5042, 5043, 5044, 5045, 5046, 5047, 5048, 5049, 5050, 
5051, 5052, 5053, 5054, 5055, 5056, 5057, 5058, 5059, 5060, 
5061, 5062, 5063, 5064, 5065, 5066, 5067, 5068, 5069, 5070, 
5071, 5072, 5073, 5074, 5075, 5076, 5077, 5078, 5079, 5080, 
5081, 5082, 5083, 5084, 5085, 5086, 5087, 5088, 5089, 5090, 
5091, 5092, 5093, 5094, 5095, 5096, 5097, 5098, 5099, 5100, 
5101, 5102, 5103, 5104, 5105, 5106, 5107, 5108, 5109, 5110, 
5111, 5112, 5113, 5114, 5115, 5116, 5117, 5118, 5119, 5120, 
5121, 5122, 5123, 5124, 5125, 5126, 5127, 5128, 5129, 5130, 
5131, 5132, 5133, 5134, 5135, 5136, 5137, 5138, 5139, 5140, 
5141, 5142, 5143, 5144, 5145, 5146, 5147, 5148, 5149, 5150, 
5151, 5152, 5153, 5154, 5155, 5156, 5157, 5158, 5159, 5160, 
5161, 5162, 5163, 5164, 5165, 5166, 5167, 5168, 5169, 5170, 
5171, 5172, 5173, 5174, 5175, 5176, 5177, 5178, 5179, 5180, 
5181, 5182, 5183, 5184, 5185, 5186, 5187, 5188, 5189, 5190, 
5191, 5192, 5193, 5194, 5195, 5196, 5197, 5198, 5199, 5200, 
5201, 5202, 5203, 5204, 5205, 5206, 5207, 5208, 5209, 5210, 
5211, 5212, 5213, 5214, 5215, 5216, 5217, 5218, 5219, 5220, 
5221, 5222, 5223, 5224, 5225, 5226, 5227, 5228, 5229, 5230, 
5231, 5232, 5233, 5234, 5235, 5236, 5237, 5238, 5239, 5240, 
5241, 5242, 5243, 5244, 5245, 5246, 5247, 5248, 5249, 5250, 
5251, 5252, 5253, 5254, 5255, 5256, 5257, 5258, 5259, 5260, 
5261, 5262, 5263, 5264, 5265, 5266, 5267, 5268, 5269, 5270, 
5271, 5272, 5273, 5274, 5275, 5276, 5277, 5278, 5279, 5280, 
5281, 5282, 5283, 5284, 5285, 5286, 5287, 5288, 5289, 5290, 
5291, 5292, 5293, 5294, 5295, 5296, 5297, 5298, 5299, 5300, 
5301, 5302, 5303, 5304, 5305, 5306, 5307, 5308, 5309, 5310, 
5311, 5312, 5313, 5314, 5315, 5316, 5317, 5318, 5319, 5320, 
5321, 5322, 5323, 5324, 5325, 5326, 5327, 5328, 5329, 5330, 
5331, 5332, 5333, 5334, 5335, 5336, 5337, 5338, 5339, 5340, 
5341, 5342, 5343, 5344, 5345, 5346, 5347, 5348, 5349, 5350, 
5351, 5352, 5353, 5354, 5355, 5356, 5357, 5358, 5359, 5360, 
5361, 5362, 5363, 5364, 5365, 5366, 5367, 5368, 5369, 5370, 
5371, 5372, 5373, 5374, 5375, 5376, 5377, 5378, 5379, 5380, 
5381, 5382, 5383, 5384, 5385, 5386, 5387, 5388, 5389, 5390, 
5391, 5392, 5393, 5394, 5395, 5396, 5397, 5398, 5399, 5400, 
5401, 5402, 5403, 5404, 5405, 5406, 5407, 5408, 5409, 5410, 
5411, 5412, 5413, 5414, 5415, 5416, 5417, 5418, 5419, 5420, 
5421, 5422, 5423, 5424, 5425, 5426, 5427, 5428, 5429, 5430, 
5431, 5432, 5433, 5434, 5435, 5436, 5437, 5438, 5439, 5440, 
5441, 5442, 5443, 5444, 5445, 5446, 5447, 5448, 5449, 5450, 
5451, 5452, 5453, 5454, 5455, 5456, 5457, 5458, 5459, 5460, 
5461, 5462, 5463, 5464, 5465, 5466, 5467, 5468, 5469, 5470, 
5471, 5472, 5473, 5474, 5475, 5476, 5477, 5478, 5479, 5480, 
5481, 5482, 5483, 5484, 5485, 5486, 5487, 5488, 5489, 5490, 
5491, 5492, 5493, 5494, 5495, 5496, 5497, 5498, 5499, 5500, 
5501, 5502, 5503, 5504, 5505, 5506, 5507, 5508, 5509, 5510, 
5511, 5512, 5513, 5514, 5515, 5516, 5517, 5518, 5519, 5520, 
5521, 5522, 5523, 5524, 5525, 5526, 5527, 5528, 5529, 5530, 
5531, 5532, 5533, 5534, 5535, 5536, 5537, 5538, 5539, 5540, 
5541, 5542, 5543, 5544, 5545, 5546, 5547, 5548, 5549, 5550, 
5551, 5552, 5553, 5554, 5555, 5556, 5557, 5558, 5559, 5560, 
5561, 5562, 5563, 5564, 5565, 5566, 5567, 5568, 5569, 5570, 
5571, 5572, 5573, 5574, 5575, 5576, 5577, 5578, 5579, 5580, 
5581, 5582, 5583, 5584, 5585, 5586, 5587, 5588, 5589, 5590, 
5591, 5592, 5593, 5594, 5595, 5596, 5597, 5598, 5599, 5600, 
5601, 5602, 5603, 5604, 5605, 5606, 5607, 5608, 5609, 5610, 
5611, 5612, 5613, 5614, 5615, 5616, 5617, 5618, 5619, 5620, 
5621, 5622, 5623, 5624, 5625, 5626, 5627, 5628, 5629, 5630, 
5631, 5632, 5633, 5634, 5635, 5636, 5637, 5638, 5639, 5640, 
5641, 5642, 5643, 5644, 5645, 5646, 5647, 5648, 5649, 5650, 
5651, 5652, 5653, 5654, 5655, 5656, 5657, 5658, 5659, 5660, 
5661, 5662, 5663, 5664, 5665, 5666, 5667, 5668, 5669, 5670, 
5671, 5672, 5673, 5674, 5675, 5676, 5677, 5678, 5679, 5680, 
5681, 5682, 5683, 5684, 5685, 5686, 5687, 5688, 5689, 5690, 
5691, 5692, 5693, 5694, 5695, 5696, 5697, 5698, 5699, 5700, 
5701, 5702, 5703, 5704, 5705, 5706, 5707, 5708, 5709, 5710, 
5711, 5712, 5713, 5714, 5715, 5716, 5717, 5718, 5719, 5720, 
5721, 5722, 5723, 5724, 5725, 5726, 5727, 5728, 5729, 5730, 
5731, 5732, 5733, 5734, 5735, 5736, 5737, 5738, 5739, 5740, 
5741, 5742, 5743, 5744, 5745, 5746, 5747, 5748, 5749, 5750, 
5751, 5752, 5753, 5754, 5755, 5756, 5757, 5758, 5759, 5760, 
5761, 5762, 5763, 5764, 5765, 5766, 5767, 5768, 5769, 5770, 
5771, 5772, 5773, 5774, 5775, 5776, 5777, 5778, 5779, 5780, 
5781, 5782, 5783, 5784, 5785, 5786, 5787, 5788, 5789, 5790, 
5791, 5792, 5793, 5794, 5795, 5796, 5797, 5798, 5799, 5800, 
5801, 5802, 5803, 5804, 5805, 5806, 5807, 5808, 5809, 5810, 
5811, 5812, 5813, 5814, 5815, 5816, 5817, 5818, 5819, 5820, 
5821, 5822, 5823, 5824, 5825, 5826, 5827, 5828, 5829, 5830, 
5831, 5832, 5833, 5834, 5835, 5836, 5837, 5838, 5839, 5840, 
5841, 5842, 5843, 5844, 5845, 5846, 5847, 5848, 5849, 5850, 
5851, 5852, 5853, 5854, 5855, 5856, 5857, 5858, 5859, 5860, 
5861, 5862, 5863, 5864, 5865, 5866, 5867, 5868, 5869, 5870, 
5871, 5872, 5873, 5874, 5875, 5876, 5877, 5878, 5879, 5880, 
5881, 5882, 5883, 5884, 5885, 5886, 5887, 5888, 5889, 5890, 
5891, 5892, 5893, 5894, 5895, 5896, 5897, 5898, 5899, 5900, 
5901, 5902, 5903, 5904, 5905, 5906, 5907, 5908, 5909, 5910, 
5911, 5912, 5913, 5914, 5915, 5916, 5917, 5918, 5919, 5920, 
5921, 5922, 5923, 5924, 5925, 5926, 5927, 5928, 5929, 5930, 
5931, 5932, 5933, 5934, 5935, 5936, 5937, 5938, 5939, 5940, 
5941, 5942, 5943, 5944, 5945, 5946, 5947, 5948, 5949, 5950, 
5951, 5952, 5953, 5954, 5955, 5956, 5957, 5958, 5959, 5960, 
5961, 5962, 5963, 5964, 5965, 5966, 5967, 5968, 5969, 5970, 
5971, 5972, 5973, 5974, 5975, 5976, 5977, 5978, 5979, 5980, 
5981, 5982, 5983, 5984, 5985, 5986, 5987, 5988, 5989, 5990, 
5991, 5992, 5993, 5994, 5995, 5996, 5997, 5998, 5999, 6000, 
6001, 6002, 6003, 6004, 6005, 6006, 6007, 6008, 6009, 6010, 
6011, 6012, 6013, 6014, 6015, 6016, 6017, 6018, 6019, 6020, 
6021, 6022, 6023, 6024, 6025, 6026, 6027, 6028, 6029, 6030, 
6031, 6032, 6033, 6034, 6035, 6036, 6037, 6038, 6039, 6040, 
6041, 6042, 6043, 6044, 6045, 6046, 6047, 6048, 6049, 6050, 
6051, 6052, 6053, 6054, 6055, 6056, 6057, 6058, 6059, 6060, 
6061, 6062, 6063, 6064, 6065, 6066, 6067, 6068, 6069, 6070, 
6071, 6072, 6073, 6074, 6075, 6076, 6077, 6078, 6079, 6080, 
6081, 6082, 6083, 6084, 6085, 6086, 6087, 6088, 6089, 6090, 
6091, 6092, 6093, 6094, 6095, 6096, 6097, 6098, 6099, 6100, 
6101, 6102, 6103, 6104, 6105, 6106, 6107, 6108, 6109, 6110, 
6111, 6112, 6113, 6114, 6115, 6116, 6117, 6118, 6119, 6120, 
6121, 6122, 6123, 6124, 6125, 6126, 6127, 6128, 6129, 6130, 
6131, 6132, 6133, 6134, 6135, 6136, 6137, 6138, 6139, 6140, 
6141, 6142, 6143, 6144, 6145, 6146, 6147, 6148, 6149, 6150, 
6151, 6152, 6153, 6154, 6155, 6156, 6157, 6158, 6159, 6160, 
6161, 6162, 6163, 6164, 6165, 6166, 6167, 6168, 6169, 6170, 
6171, 6172, 6173, 6174, 6175, 6176, 6177, 6178, 6179, 6180, 
6181, 6182, 6183, 6184, 6185, 6186, 6187, 6188, 6189, 6190, 
6191, 6192, 6193, 6194, 6195, 6196, 6197, 6198, 6199, 6200, 
6201, 6202, 6203, 6204, 6205, 6206, 6207, 6208, 6209, 6210, 
6211, 6212, 6213, 6214, 6215, 6216, 6217, 6218, 6219, 6220, 
6221, 6222, 6223, 6224, 6225, 6226, 6227, 6228, 6229, 6230, 
6231, 6232, 6233, 6234, 6235, 6236, 6237, 6238, 6239, 6240, 
6241, 6242, 6243, 6244, 6245, 6246, 6247, 6248, 6249, 6250, 
6251, 6252, 6253, 6254, 6255, 6256, 6257, 6258, 6259, 6260, 
6261, 6262, 6263, 6264, 6265, 6266, 6267, 6268, 6269, 6270, 
6271, 6272, 6273, 6274, 6275, 6276, 6277, 6278, 6279, 6280, 
6281, 6282, 6283, 6284, 6285, 6286, 6287, 6288, 6289, 6290, 
6291, 6292, 6293, 6294, 6295, 6296, 6297, 6298, 6299, 6300, 
6301, 6302, 6303, 6304, 6305, 6306, 6307, 6308, 6309, 6310, 
6311, 6312, 6313, 6314, 6315, 6316, 6317, 6318, 6319, 6320, 
6321, 6322, 6323, 6324, 6325, 6326, 6327, 6328, 6329, 6330, 
6331, 6332, 6333, 6334, 6335, 6336, 6337, 6338, 6339, 6340, 
6341, 6342, 6343, 6344, 6345, 6346, 6347, 6348, 6349, 6350, 
6351, 6352, 6353, 6354, 6355, 6356, 6357, 6358, 6359, 6360, 
6361, 6362, 6363, 6364, 6365, 6366, 6367, 6368, 6369, 6370, 
6371, 6372, 6373, 6374, 6375, 6376, 6377, 6378, 6379, 6380, 
6381, 6382, 6383, 6384, 6385, 6386, 6387, 6388, 6389, 6390, 
6391, 6392, 6393, 6394, 6395, 6396, 6397, 6398, 6399, 6400, 
6401, 6402, 6403, 6404, 6405, 6406, 6407, 6408, 6409, 6410, 
6411, 6412, 6413, 6414, 6415, 6416, 6417, 6418, 6419, 6420, 
6421, 6422, 6423, 6424, 6425, 6426, 6427, 6428, 6429, 6430, 
6431, 6432, 6433, 6434, 6435, 6436, 6437, 6438, 6439, 6440, 
6441, 6442, 6443, 6444, 6445, 6446, 6447, 6448, 6449, 6450, 
6451, 6452, 6453, 6454, 6455, 6456, 6457, 6458, 6459, 6460, 
6461, 6462, 6463, 6464, 6465, 6466, 6467, 6468, 6469, 6470, 
6471, 6472, 6473, 6474, 6475, 6476, 6477, 6478, 6479, 6480, 
6481, 6482, 6483, 6484, 6485, 6486, 6487, 6488, 6489, 6490, 
6491, 6492, 6493, 6494, 6495, 6496, 6497, 6498, 6499, 6500, 
6501, 6502, 6503, 6504, 6505, 6506, 6507, 6508, 6509, 6510, 
6511, 6512, 6513, 6514, 6515, 6516, 6517, 6518, 6519, 6520, 
6521, 6522, 6523, 6524, 6525, 6526, 6527, 6528, 6529, 6530, 
6531, 6532, 6533, 6534, 6535, 6536, 6537, 6538, 6539, 6540, 
6541, 6542, 6543, 6544, 6545, 6546, 6547, 6548, 6549, 6550, 
6551, 6552, 6553, 6554, 6555, 6556, 6557, 6558, 6559, 6560, 
6561, 6562, 6563, 6564, 6565, 6566, 6567, 6568, 6569, 6570, 
6571, 6572, 6573, 6574, 6575, 6576, 6577, 6578, 6579, 6580, 
6581, 6582, 6583, 6584, 6585, 6586, 6587, 6588, 6589, 6590, 
6591, 6592, 6593, 6594, 6595, 6596, 6597, 6598, 6599, 6600, 
6601, 6602, 6603, 6604, 6605, 6606, 6607, 6608, 6609, 6610, 
6611, 6612, 6613, 6614, 6615, 6616, 6617, 6618, 6619, 6620, 
6621, 6622, 6623, 6624, 6625, 6626, 6627, 6628, 6629, 6630, 
6631, 6632, 6633, 6634, 6635, 6636, 6637, 6638, 6639, 6640, 
6641, 6642, 6643, 6644, 6645, 6646, 6647, 6648, 6649, 6650, 
6651, 6652, 6653, 6654, 6655, 6656, 6657, 6658, 6659, 6660, 
6661, 6662, 6663, 6664, 6665, 6666, 6667, 6668, 6669, 6670, 
6671, 6672, 6673, 6674, 6675, 6676, 6677, 6678, 6679, 6680, 
6681, 6682, 6683, 6684, 6685, 6686, 6687, 6688, 6689, 6690, 
6691, 6692, 6693, 6694, 6695, 6696, 6697, 6698, 6699, 6700, 
6701, 6702, 6703, 6704, 6705, 6706, 6707, 6708, 6709, 6710, 
6711, 6712, 6713, 6714, 6715, 6716, 6717, 6718, 6719, 6720, 
6721, 6722, 6723, 6724, 6725, 6726, 6727, 6728, 6729, 6730, 
6731, 6732, 6733, 6734, 6735, 6736, 6737, 6738, 6739, 6740, 
6741, 6742, 6743, 6744, 6745, 6746, 6747, 6748, 6749, 6750, 
6751, 6752, 6753, 6754, 6755, 6756, 6757, 6758, 6759, 6760, 
6761, 6762, 6763, 6764, 6765, 6766, 6767, 6768, 6769, 6770, 
6771, 6772, 6773, 6774, 6775, 6776, 6777, 6778, 6779, 6780, 
6781, 6782, 6783, 6784, 6785, 6786, 6787, 6788, 6789, 6790, 
6791, 6792, 6793, 6794, 6795, 6796, 6797, 6798, 6799, 6800, 
6801, 6802, 6803, 6804, 6805, 6806, 6807, 6808, 6809, 6810, 
6811, 6812, 6813, 6814, 6815, 6816, 6817, 6818, 6819, 6820, 
6821, 6822, 6823, 6824, 6825, 6826, 6827, 6828, 6829, 6830, 
6831, 6832, 6833, 6834, 6835, 6836, 6837, 6838, 6839, 6840, 
6841, 6842, 6843, 6844, 6845, 6846, 6847, 6848, 6849, 6850, 
6851, 6852, 6853, 6854, 6855, 6856, 6857, 6858, 6859, 6860, 
6861, 6862, 6863, 6864, 6865, 6866, 6867, 6868, 6869, 6870, 
6871, 6872, 6873, 6874, 6875, 6876, 6877, 6878, 6879, 6880, 
6881, 6882, 6883, 6884, 6885, 6886, 6887, 6888, 6889, 6890, 
6891, 6892, 6893, 6894, 6895, 6896, 6897, 6898, 6899, 6900, 
6901, 6902, 6903, 6904, 6905, 6906, 6907, 6908, 6909, 6910, 
6911, 6912, 6913, 6914, 6915, 6916, 6917, 6918, 6919, 6920, 
6921, 6922, 6923, 6924, 6925, 6926, 6927, 6928, 6929, 6930, 
6931, 6932, 6933, 6934, 6935, 6936, 6937, 6938, 6939, 6940, 
6941, 6942, 6943, 6944, 6945, 6946, 6947, 6948, 6949, 6950, 
6951, 6952, 6953, 6954, 6955, 6956, 6957, 6958, 6959, 6960, 
6961, 6962, 6963, 6964, 6965, 6966, 6967, 6968, 6969, 6970, 
6971, 6972, 6973, 6974, 6975, 6976, 6977, 6978, 6979, 6980, 
6981, 6982, 6983, 6984, 6985, 6986, 6987, 6988, 6989, 6990, 
6991, 6992, 6993, 6994, 6995, 6996, 6997, 6998, 6999, 7000, 
7001, 7002, 7003, 7004, 7005, 7006, 7007, 7008, 7009, 7010, 
7011, 7012, 7013, 7014, 7015, 7016, 7017, 7018, 7019, 7020, 
7021, 7022, 7023, 7024, 7025, 7026, 7027, 7028, 7029, 7030, 
7031, 7032, 7033, 7034, 7035, 7036, 7037, 7038, 7039, 7040, 
7041, 7042, 7043, 7044, 7045, 7046, 7047, 7048, 7049, 7050, 
7051, 7052, 7053, 7054, 7055, 7056, 7057, 7058, 7059, 7060, 
7061, 7062, 7063, 7064, 7065, 7066, 7067, 7068, 7069, 7070, 
7071, 7072, 7073, 7074, 7075, 7076, 7077, 7078, 7079, 7080, 
7081, 7082, 7083, 7084, 
