*Heading
 C:\Users\CAMILA CASTRO\Documents\SHARON DANIELA\AT_Mesh\Nueva carpeta\UFC1.inp
*NODE
1, 61.44828414917, 68.559143066406, -9.5084953308105
2, 60.670599198628, 68.356767227366, -9.9107981737454
3, 60.681022799469, 68.640432650361, -10.759899113722
4, 60.685505908739, 68.810552955834, -11.643050295553
5, 60.10132281231, 68.955222835826, -12.4166420901
6, 59.858733353231, 69.194609020824, -13.262478756585
7, 59.866342316797, 69.387456449346, -14.11002116369
8, 59.461417945639, 69.488135276574, -15.003874889771
9, 59.053370625799, 69.626825698407, -15.892694951229
10, 58.724563445544, 69.872529688457, -16.787190949874
11, 57.988068698704, 70.051280265359, -17.224902926269
12, 57.002449305238, 70.057001400929, -17.160654234956
13, 56.344948875439, 70.280391772726, -17.759908292086
14, 55.789432847223, 70.447721593439, -18.554737020851
15, 55.271653828936, 70.553402046826, -19.281763101364
16, 55.074265855003, 70.748244123326, -20.084048227766
17, 54.275320217764, 70.799869510491, -20.386943094416
18, 53.590931546712, 70.937518082999, -20.859641270268
19, 52.633833529113, 71.008614244812, -21.094196702016
20, 51.807780260111, 71.209654623255, -21.537064963554
21, 51.160273186627, 71.560349208376, -22.172680922639
22, 51.119697467865, 71.97147103502, -22.926867105201
23, 50.372577168495, 72.374413447079, -23.42399039026
24, 50.431241515353, 73.210274955386, -23.678412461967
25, 50.029185594287, 73.65151502173, -23.104253277415
26, 50.201899088311, 73.755670460885, -22.313750017537
27, 51.041307447118, 73.847104309807, -21.986884060332
28, 50.71114948592, 73.796488320363, -21.075893916592
29, 50.052724544527, 73.719433289663, -20.344751321682
30, 49.70900179232, 73.714166967326, -19.527609900645
31, 49.812829926416, 73.760605212921, -18.546527596681
32, 49.954432315696, 73.68851133285, -17.573552948592
33, 50.13755383718, 73.398640045332, -16.652840196902
34, 50.27804786958, 73.039062410024, -15.744798371878
35, 50.351814994354, 72.759580951206, -14.869681998328
36, 51.231911326177, 72.668167513128, -14.507893096896
37, 51.860173699042, 72.536655736557, -13.927790480463
38, 52.801625699977, 72.485635867956, -14.039597071999
39, 53.474019303224, 72.321935183146, -13.498026086484
40, 54.26967227546, 72.120455518968, -13.004343185073
41, 55.20738864625, 71.960803833865, -12.735303993974
42, 55.882333877196, 71.730068052098, -12.103480861748
43, 56.717529697227, 71.612552322461, -11.913823710258
44, 57.497113314738, 71.448018521129, -11.565961111582
45, 58.188119579321, 71.274895537386, -10.903202123605
46, 58.862832165561, 71.081075658604, -10.216003377708
47, 59.725680014292, 70.894196537718, -10.210132518334
48, 60.591284901897, 70.526570094856, -9.9147849716906
49, 61.342718598962, 70.058002352479, -9.6961612875866
50, 61.797593490805, 69.380889746217, -9.3016223003502
51, 55.32851273559, 70.895956333901, -20.743140225083
52, 60.333331100701, 69.440093450873, -14.965262565771
53, 61.367247004329, 68.798013020374, -11.297397775298
54, 50.645888923743, 73.773301765014, -18.045577315576
55, 51.490698874242, 72.968924732683, -15.727812830845
56, 53.270892495033, 72.519333124647, -14.643979767351
57, 51.827457177659, 71.893404481324, -22.923790443463
58, 53.431447488556, 71.29069938474, -21.826701680166
59, 51.635420582835, 73.881585703428, -20.716278881581
60, 57.157792322269, 70.367180888731, -18.089356318659
61, 50.970314669434, 73.440650028153, -23.637001477308
62, 59.591798591107, 69.781741002918, -16.706522735221
63, 57.953563034804, 70.408185941243, -18.478839352248
64, 56.442653809364, 70.569875836597, -19.301582210732
65, 60.757026366735, 69.336446592713, -13.854941998085
66, 61.321148678832, 69.394604592893, -14.95457213784
67, 61.807916296377, 69.347511280776, -13.984071487354
68, 62.22868814393, 69.375571030533, -14.807688450133
69, 55.13759208712, 72.174225430894, -13.549952700128
70, 62.739924109417, 69.413719182408, -13.974833285494
71, 57.552503693397, 71.589685176804, -12.371601347251
72, 59.092674571451, 71.137941928982, -11.462494058876
73, 63.174335628597, 69.433787113389, -14.87872055731
74, 63.28727861357, 69.861340781012, -14.151663203904
75, 63.619545082215, 69.935795430843, -15.183087968132
76, 62.689025256807, 70.365833871401, -14.784388147283
77, 62.980402087641, 70.444914846063, -15.827246712291
78, 63.802704526333, 70.086386127291, -16.188067721733
79, 63.224429643057, 70.564664170662, -16.843492417047
80, 62.213759334247, 70.889318729465, -16.33435460327
81, 62.467093193024, 71.061179770579, -17.500068285174
82, 61.509428169378, 71.353229425789, -17.062105033748
83, 61.76507815741, 71.448297629853, -17.833733583825
84, 62.291684146464, 71.333995707022, -18.374739020084
85, 64.175480065493, 70.058493260117, -17.207890215287
86, 61.587450242532, 71.735866909145, -18.778395538388
87, 62.487071646692, 71.388569585082, -19.204499748736
88, 61.802562427696, 71.82138666699, -19.760296602275
89, 60.690642448516, 72.263323305031, -19.408650304844
90, 61.237166889835, 72.229753359243, -20.433757178178
91, 60.352471342187, 72.572312168342, -20.333900817395
92, 62.721522990103, 71.460885687484, -20.143096741607
93, 60.836891741167, 72.559366227706, -21.150527818056
94, 59.750833272235, 72.935916330506, -21.17362397757
95, 58.864704900474, 73.148139753269, -20.681548146016
96, 58.760038824528, 73.285575378615, -21.652429915024
97, 60.550651040268, 72.822666909789, -22.075544491505
98, 57.942947704818, 73.424985409899, -21.03198962019
99, 57.800284223401, 73.381009211892, -19.622908127806
100, 57.663339674761, 73.548879580142, -21.995154880049
101, 64.050170712496, 69.478602517499, -16.656272717347
102, 64.345376207096, 69.464161143135, -17.713319121548
103, 56.780841618105, 73.662606221998, -21.242557169904
104, 56.714677879285, 73.707240040137, -22.416144402615
105, 57.533300602597, 73.605339479804, -22.989457514805
106, 56.485527992186, 73.713722737039, -23.398509616486
107, 57.320458128957, 73.478545907984, -23.962575036745
108, 56.295573381149, 73.40024249197, -24.359503033497
109, 57.107921113164, 73.118017804553, -24.831565619906
110, 56.017657360895, 72.762464399006, -25.228168695027
111, 61.161982223511, 71.245263729253, -16.168419934901
112, 63.240648689716, 69.454943344832, -17.419215126
113, 60.572949881088, 71.643298114413, -16.873741525284
114, 61.207714065893, 70.339766236681, -10.517115362272
115, 55.392752846409, 73.694245355423, -23.737534069
116, 60.135758043123, 71.501713244118, -15.884043353968
117, 59.585412837985, 71.861523445866, -16.569986433677
118, 58.111803689838, 73.101533673864, -24.46474238671
119, 57.961026601565, 72.404183336191, -25.351744308598
120, 58.904726546905, 72.665478309695, -24.815965022149
121, 59.052593176106, 71.738257040787, -25.011006263216
122, 58.026264903289, 71.628211667617, -24.784281923864
123, 58.524285823954, 71.163178327984, -24.045390037842
124, 59.118687872466, 71.725527080069, -15.616166596804
125, 58.559072582926, 72.05910487369, -16.304766481179
126, 57.462261122076, 71.351249888814, -24.02554897163
127, 58.085646312344, 71.012281633643, -23.044968943697
128, 59.039361486705, 70.893051904318, -23.2460526484
129, 63.609358137793, 69.510116989122, -18.381345168012
130, 62.602778997271, 69.63351605541, -18.177825088748
131, 62.963746400747, 69.728428516854, -19.075562936019
132, 61.946029490098, 69.858248018597, -18.919830332864
133, 62.279682206666, 69.928943190247, -19.718551148903
134, 58.60869242739, 70.801847200756, -22.113399133723
135, 59.69840465325, 70.71046242458, -22.436903286808
136, 64.44439502662, 69.622354206796, -18.612895867918
137, 59.440328631971, 70.589076278506, -21.444243727123
138, 60.056641048267, 70.762654691047, -23.407221285327
139, 60.704728950103, 70.604830288718, -22.554428739485
140, 62.460086314496, 70.28859890384, -13.710161045622
141, 61.459639253082, 72.453042846444, -21.964514872652
142, 61.147342355783, 72.62828934369, -22.800505919686
143, 58.079501923682, 71.922184862405, -15.399493423807
144, 57.576622697796, 72.258700518433, -16.196727298488
145, 59.738869644425, 71.44253467254, -14.989473064877
146, 58.970723657043, 72.227424764754, -17.091637766342
147, 58.539593992855, 70.653434636711, -21.080094712131
148, 63.308527948156, 69.852021590836, -19.940932892513
149, 62.551837573302, 70.047428355763, -20.525327168941
150, 61.90766301717, 68.773882038208, -10.71781303341
151, 62.319268008212, 68.974861959163, -11.630855860781
152, 55.823374236484, 73.796072331394, -21.874826039823
153, 55.648116928345, 73.812775289674, -20.847492818148
154, 54.852167303525, 73.879263103545, -21.423507132921
155, 54.704657079293, 73.889304043467, -20.412502204271
156, 55.43846424037, 73.821317987235, -19.805431727869
157, 54.444982095954, 73.878465504222, -19.426082852918
158, 55.212196102106, 73.75046957353, -18.829908140272
159, 54.240295235925, 73.738749855038, -18.510630995645
160, 54.933696507274, 73.458178797889, -17.901088032227
161, 54.014822600258, 73.474494146644, -17.567714485148
162, 54.661949860896, 73.145034222733, -16.95881261712
163, 53.490297682731, 73.90257413069, -19.225260697162
164, 55.884201446203, 73.467421356997, -18.220013051171
165, 61.403641351843, 70.058512322155, -19.713257219902
166, 57.080639412279, 71.150649652495, -22.917789956794
167, 57.08955320913, 72.119442866926, -15.38137762688
168, 62.258663005056, 69.569183101288, -17.267334494255
169, 59.191200963617, 70.485940884372, -20.42684587746
170, 59.008693440283, 73.047342427462, -24.059590816999
171, 60.859772884678, 70.021363614005, -18.686714174827
172, 56.439725106732, 71.418903517078, -23.570413326518
173, 59.825521154715, 72.164768798781, -24.796277676319
174, 56.634399143213, 72.443475347889, -16.15748009491
175, 57.128309364036, 72.660072013927, -16.966783957696
176, 56.06262902548, 72.311537018852, -15.393038898
177, 53.806275963372, 73.931067478031, -20.924471619076
178, 53.936296714126, 73.918224529414, -22.044411385822
179, 61.842254473921, 70.689608370977, -14.462878301486
180, 61.66321306973, 70.643240514863, -13.387956416242
181, 57.602951489012, 71.869247961829, -14.33556260371
182, 63.275781453154, 71.027464126155, -19.405471699517
183, 59.797280812924, 72.649481159079, -19.413239188176
184, 53.754885856859, 73.117886325475, -16.637510684377
185, 53.06488311905, 73.46891175094, -17.218021514179
186, 55.911903393055, 71.239418253318, -22.547223171673
187, 55.419252985194, 71.570479587441, -23.452054792166
188, 60.140567543102, 72.302457030699, -18.445343368519
189, 54.193806319406, 71.18877555452, -21.651339875697
190, 56.715773586131, 71.03980986852, -22.110447943207
191, 56.745318079328, 71.804907903517, -12.721821446408
192, 51.322467054797, 72.455746639842, -23.606044952878
193, 52.339679723065, 72.31606224387, -23.698138400244
194, 51.989808292839, 72.712362585673, -15.008311980096
195, 50.554552637263, 73.807092932935, -19.734480590776
196, 59.320819579258, 72.700771769582, -18.70280032783
197, 56.339045147765, 73.712263828205, -20.096491197918
198, 54.478276598615, 72.754026750712, -16.045758882221
199, 58.362054503396, 70.561655964489, -20.185890918397
200, 61.362338920844, 69.205345010743, -13.134123560873
201, 56.614705687267, 71.663773429981, -24.372587060405
202, 60.820642071334, 69.491273705982, -15.855632342679
203, 60.201243319033, 70.371243956938, -20.646980754223
204, 59.377574466043, 70.10988783342, -17.71607614365
205, 60.236814837341, 72.942871843793, -22.988287254834
206, 60.77243795787, 72.61645447724, -23.604651044912
207, 62.719006790438, 69.42326831088, -16.457903403586
208, 62.078508151083, 69.703474044192, -10.3263486433
209, 63.054900547068, 69.64202689421, -12.994365030507
210, 61.750302492585, 70.152266175046, -11.314040452858
211, 60.937374862408, 70.565859848646, -11.439853728649
212, 54.034294953608, 72.398186486573, -14.323926984431
213, 60.967679039902, 71.002401479061, -14.103795679579
214, 52.967390920374, 73.933356627358, -21.713608900099
215, 53.104077967741, 73.872890060704, -22.776777697315
216, 52.186955121896, 73.910810280302, -22.30583965053
217, 51.378298593996, 73.839683667496, -22.648231527155
218, 51.853066188007, 73.895843791579, -21.512238666398
219, 57.650129867533, 70.704165633396, -20.616936574089
220, 60.821504971091, 70.920767366223, -13.007221227694
221, 56.310357426464, 72.820127485976, -16.916977128499
222, 62.301390879605, 70.186379434405, -12.69870949148
223, 57.589644333474, 70.941548924617, -22.165231794475
224, 52.854664659104, 73.095322493605, -16.369005025627
225, 52.074844290982, 73.408641569786, -16.849167704094
226, 52.288708482143, 73.685947215161, -17.764757272034
227, 54.255590566433, 71.402635555336, -22.403957320514
228, 53.46161636283, 71.615983300041, -22.748007872837
229, 54.053950279456, 73.863479518756, -22.982124617178
230, 53.190302885668, 73.557975584227, -23.752470206289
231, 61.075700838314, 70.644832682055, -23.466145103697
232, 61.712925088452, 70.520279985738, -22.671545312965
233, 61.320791467258, 70.423986612144, -21.806834083427
234, 60.460423955775, 70.910818121862, -24.270769395361
235, 52.590978340739, 73.932053152165, -20.665006598915
236, 57.626682384827, 71.779833495571, -13.308631088133
237, 51.919613944432, 73.906953492076, -20.122106186331
238, 54.385280381604, 71.735423830261, -23.389817213646
239, 52.085633498539, 73.223262525886, -23.948698671774
240, 60.247857460319, 69.948801497852, -17.518092942685
241, 59.597498905978, 70.318346162798, -19.583348474447
242, 60.058772815511, 71.245822258758, -13.49200304533
243, 61.560647962992, 69.795784859241, -17.932244721435
244, 62.21251685319, 70.353344880881, -21.837157260805
245, 63.469752938601, 70.057742294639, -20.892088206083
246, 62.691651148634, 70.47615105417, -22.572948255732
247, 61.53374305675, 72.279275100113, -23.519099248118
248, 64.315717247829, 69.938529879645, -20.11504110912
249, 62.06135852363, 70.593371734012, -23.618361850544
250, 63.546382686893, 71.08227237481, -20.401374557487
251, 62.916947561529, 71.590088520122, -21.078574548947
252, 63.093650914177, 70.629353539564, -23.455315373374
253, 63.626666610901, 70.621138981617, -22.605513069501
254, 63.404735303868, 71.300725909656, -22.867432888506
255, 62.45314124726, 71.153410029422, -23.968813713994
256, 63.032853406138, 70.996421163077, -18.44328257542
257, 54.996299161212, 71.190334025445, -21.938372304722
258, 62.123015382017, 71.904097143244, -20.752805691497
259, 59.867751955921, 71.13294709712, -12.477087810626
260, 59.213658902484, 71.434979970374, -13.162616898408
261, 58.698010364343, 71.662852127239, -14.673596458527
262, 57.500118182313, 70.59414775813, -19.782146380586
263, 61.614245723262, 70.922737753339, -15.416537369498
264, 60.723743590873, 71.165172888353, -15.046129108701
265, 63.727445924456, 71.145587884214, -21.373162860133
266, 53.568439624607, 72.792525255452, -15.775873368658
267, 61.981969518428, 72.247380665609, -22.646468982246
268, 60.935324130028, 71.806706326423, -17.866921977993
269, 58.52140224145, 73.419794989364, -22.624761068941
270, 63.861191217843, 70.565221061659, -18.670792883134
271, 54.882094463944, 73.862653762018, -22.416721700602
272, 56.606178231141, 73.106614890202, -17.671214274825
273, 57.681167142143, 72.941998103364, -17.840861695332
274, 56.922933836543, 73.410048303182, -18.516158253696
275, 59.949806412913, 72.050609796085, -17.449740544233
276, 61.204070113005, 69.640519443137, -16.851518075069
277, 56.533470645033, 72.077753491981, -14.568144005442
278, 53.280135087724, 73.70509110272, -18.166361581194
279, 52.456037642451, 73.842475992444, -18.709507698296
280, 64.080231869415, 70.600951270577, -19.776987851034
281, 55.605955797136, 72.219131900725, -14.552278803181
282, 61.594388262622, 70.967438296415, -24.427902322163
283, 60.759956936131, 71.73267959595, -24.606191910203
284, 59.559595597293, 73.151990982938, -22.314677986962
285, 61.729068978793, 69.423587981881, -15.813414590032
286, 59.44112027041, 71.151178151115, -24.365971723004
287, 56.855762914768, 72.447933488827, -25.390354510685
288, 54.35663066557, 73.57570914879, -23.92255143202
289, 53.646001848436, 72.95939305226, -24.40396388094
290, 54.473084683629, 72.956152146152, -24.764171679715
291, 53.285935866148, 73.937681294547, -20.106122921769
292, 55.326892132697, 73.272110214437, -24.579042571616
293, 63.562457240395, 69.418822998175, -15.769419681787
294, 56.743555531428, 70.725726093902, -20.241493318033
295, 56.182631087828, 73.68461802977, -19.145769106354
296, 55.589910630314, 73.130917946304, -17.304710406494
297, 51.38663958229, 73.659867953833, -17.406161139059
298, 51.10828319626, 73.24357870812, -16.369613455693
299, 61.754051080397, 70.188649811093, -20.80558322213
300, 52.657504643041, 71.425861652915, -22.0624649461
301, 55.969671630114, 71.992537463586, -13.113846612209
302, 58.283243210443, 71.376347649155, -11.903559023938
303, 60.353169948515, 70.724401997063, -10.78990085443
304, 54.223499873987, 72.264674531017, -24.271193106358
305, 55.22834425666, 72.349113119334, -24.834935519648
306, 55.809840096406, 71.780704555409, -24.191450065415
307, 53.340757194883, 72.168284709003, -23.781565429473
308, 63.112857668476, 71.621337141748, -21.951818813371
309, 61.481084390082, 70.506613447339, -12.276917596624
310, 62.288206140351, 72.027395734739, -21.696834655482
311, 57.055229419534, 73.544118071655, -19.392096941339
312, 59.878846916165, 72.870131906881, -23.785724093493
313, 52.342766705726, 73.758884476683, -23.197218336696
314, 58.013509834318, 72.415547499612, -16.894564672465
315, 59.862584662253, 70.182241358713, -18.579639598855
316, 57.831066744168, 73.266988940437, -18.802192257298
317, 55.109239849, 72.456247522324, -15.352973908333
318, 55.556995769947, 72.71253520093, -16.33562021967
319, 58.314043752584, 73.398018966037, -23.572834011542
320, 63.192974254167, 70.316740733004, -21.822886352524
321, 58.756316223116, 73.067726062648, -19.49018470195
322, 62.237835632986, 69.274489901833, -13.104893027013
323, 60.0735995628, 70.880737220707, -11.524086451761
324, 61.006930167573, 68.966482073965, -12.318170447874
325, 64.263769284567, 70.554352920422, -20.764151348896
326, 64.116874114531, 70.541272149188, -21.804798945862
327, 62.33010746253, 71.865267625914, -23.468044849166
328, 62.650429702759, 69.368890020444, -15.567661164333
329, 56.768311218244, 71.967712580088, -13.692320294429
330, 55.884924088097, 70.723376305938, -20.003984233103
331, 59.946395521861, 69.553006597432, -15.828064731648
332, 50.734508203831, 73.743215442754, -22.984875203662
333, 51.482777060662, 73.809030249831, -18.371676105612
334, 51.511347388482, 73.885762892879, -19.393197222652
335, 63.934078350014, 69.693475660558, -19.282591368126
336, 58.504572121202, 72.58876056917, -17.589491201484
337, 52.527920818683, 73.931969337362, -19.657795572957
338, 59.42831494674, 71.459428323785, -14.093170349733
339, 55.705195878259, 73.805724659778, -22.860982242941
340, 60.364207800014, 70.506855837338, -21.647315374742
341, 55.96857999557, 72.09743031075, -13.843568065887
342, 54.254112302809, 72.519187641797, -15.135792218922
343, 64.353558538419, 70.033611067967, -17.97096170814
344, 62.135120402177, 68.809420453307, -10.006741832031
345, 62.572096860598, 69.100179297037, -10.733629061742
346, 63.632184126997, 70.532555779309, -17.768283822202
347, 56.586561133609, 70.447570943582, -18.485922340984
348, 60.372378561287, 69.663279187324, -16.532228534572
349, 59.26927347345, 73.222133118912, -23.210540268333
350, 62.795286848043, 69.620855621447, -12.062216010001
351, 62.614151371091, 69.206625298651, -12.447373683099
352, 58.857681873203, 70.430975020971, -19.650678640881
353, 56.903140673191, 70.858884241395, -21.184025919329
354, 50.569814357949, 73.819253510447, -18.967503858496
355, 57.300201963352, 73.531723852114, -20.298377699364
356, 54.995311997231, 71.410378271869, -22.746827819056
357, 52.697194349024, 72.77736799017, -15.440954905383
358, 61.692304488603, 71.739573719617, -24.114405857458
359, 61.848320164267, 69.030389425946, -12.302992481957
360, 60.998301663152, 70.222399847972, -20.406535175673
361, 59.269300226148, 72.446414344453, -17.875175712577
362, 54.997994619647, 71.914121950783, -24.063927131066
363, 63.709872550282, 71.202748861883, -22.158043945122
364, 59.598847873789, 70.957181170116, -10.851630382044
365, 62.784954679332, 71.831428724897, -22.733399624679
366, 60.832899986574, 72.039071793876, -18.593228928181
367, 60.181762230607, 71.266367516838, -14.343144760299
368, 60.375096742693, 72.429247832348, -24.276402113336
369, 58.162795181503, 70.467603667525, -19.300777384417
370, 58.936750266289, 70.336486331721, -18.800979675986
371, 51.058433865347, 73.843705413082, -20.304026876961
372, 60.628813511391, 69.135355856558, -12.98133194523
373, 52.455108819755, 72.593165807712, -14.552687043984
374, 58.496485051996, 70.243481164438, -17.803116893349
375, 58.473202241856, 71.652479260654, -13.696007831139
376, 52.029457369907, 73.070596138997, -16.141688397656
377, 60.520511038075, 70.184652203477, -19.63363232278
378, 61.348602755037, 68.562862587159, -10.309550762794
379, 62.46487586351, 69.655128971013, -11.259550684752
380, 52.85084609354, 72.864025022151, -24.155055971948
381, 55.707708857894, 71.018292058602, -21.441745182323
382, 50.984140160187, 72.859125793625, -15.315871352129
383, 56.114111397643, 72.084296144798, -24.876222017902
384, 59.527544639333, 72.869544095338, -20.214463672786
385, 57.33219967092, 70.483195680929, -18.891193114876
386, 58.969382923686, 71.329526943183, -12.361169772119
387, 60.00209457006, 71.466674004295, -24.763791358708
388, 64.507140727277, 70.058673181615, -19.239979925159
389, 52.623245115724, 71.804186088905, -22.949066089758
390, 60.652606678724, 70.80329644457, -12.156068199411
391, 57.203576987593, 71.861535559651, -24.920452248418
392, 57.828515355994, 70.777891840835, -21.377783050603
393, 56.062532469962, 70.848671454752, -20.672654231385
394, 62.891568868409, 71.419382018979, -23.39538786202
395, 57.685683298806, 70.263234952411, -17.746202234389
396, 50.610681836816, 73.617396457737, -17.195300259553
397, 54.678969364364, 71.005042279559, -21.070175448804
398, 52.000812870497, 71.576865094357, -22.303736850127
399, 58.378354496594, 71.557345282711, -12.806957629567
400, 54.767724037901, 72.327217961966, -14.458915575435
401, 58.536094435622, 72.885673658549, -18.323377883315
402, 58.166464765839, 73.317597159667, -20.256370583429
403, 54.421269537817, 72.274016611077, -13.702991028415
404, 54.789940404503, 73.822723859811, -23.210693128264
405, 62.319520399011, 70.638895523407, -15.376877587939
406, 62.195307404202, 70.044094112171, -11.925666318272
407, 60.950270353546, 70.336226740481, -21.08225363112
408, 61.934347731222, 69.501198577694, -16.590048806216
409, 50.794881696377, 72.817142898096, -23.728923667606
410, 51.495487966982, 73.695597523982, -23.270521211192
411, 61.59944659791, 72.250096971574, -21.178938451559
412, 59.529342294668, 72.702591851896, -24.387517502076
413, 61.073741284539, 72.191379989766, -24.067915635826
414, 53.972451465533, 73.928489725503, -20.022479944177
415, 62.680619248875, 70.163796379292, -21.222348263831
416, 61.290211808511, 70.942909867636, -14.766412206117
417, 64.369291646451, 70.130517217782, -18.616279794837
418, 55.780203207262, 71.640872433949, -11.410843282845
419, 59.527150053475, 70.434911434472, -8.9798861225777
420, 49.407185451187, 73.173628941858, -16.119414179515
421, 54.256827527521, 70.620634781271, -19.804624419704
422, 51.945212808501, 70.595970216422, -20.393386432702
423, 55.585554812198, 70.212173406134, -17.652932930126
424, 58.488263880825, 69.607158449684, -15.630019481619
425, 59.320257119039, 68.777127989096, -11.737301940845
426, 59.011849603677, 69.288439025198, -13.583379816768
427, 57.940744443831, 71.204021108713, -9.8832228665824
428, 56.726163407628, 69.8118185101, -16.248129330626
429, 53.630585077804, 72.066227610897, -12.703504852102
430, 51.249147712548, 72.385552606562, -13.339296231815
431, 58.60361548326, 70.80537086713, -9.1930337796661
432, 57.543702743831, 70.908065898384, -8.9907485216625
433, 58.075639427106, 70.320043230151, -8.3464009975212
434, 57.04889750416, 70.332030695306, -8.2557577627852
435, 57.592464980842, 69.47353807937, -8.3413762011888
436, 56.559741807831, 69.494063470893, -8.358385429277
437, 57.147397157262, 68.649087422655, -8.6137711572585
438, 56.086386931475, 68.678342156693, -8.6468754651041
439, 60.443608769605, 68.425017448608, -9.1930252017078
440, 55.583175222918, 69.568262625138, -8.3930076027155
441, 55.133320688272, 68.801680856625, -8.6872480999635
442, 55.59541715746, 68.097362271057, -9.2867109488638
443, 54.620994469179, 68.240667651645, -9.3071506772394
444, 55.132163312434, 68.228692532811, -10.184516310739
445, 54.160907624816, 68.238740316144, -10.194629305221
446, 53.684953055439, 68.297091249897, -9.3240473589016
447, 53.180731328266, 68.225315934359, -10.200041476538
448, 52.792875424029, 68.390995864492, -9.3312806107266
449, 52.400170274207, 68.200770131215, -9.9457142893968
450, 52.395487827543, 68.353849244074, -10.87489767308
451, 51.760996625454, 68.202256460555, -10.299393296212
452, 51.347974138737, 68.427128952627, -11.222628336214
453, 52.275639634631, 68.711198497259, -12.022739617653
454, 51.338796666882, 68.829406287599, -12.520623240437
455, 50.565839430709, 68.599022260802, -11.782106205801
456, 50.341096420982, 68.83946435525, -12.577723855366
457, 50.865287869766, 69.003305072993, -13.514859802428
458, 49.788877090449, 68.965069162104, -13.364424320204
459, 50.105324942025, 69.055019379415, -14.406951581602
460, 50.535098811405, 71.572787533418, -22.155952879673
461, 51.074083697921, 69.149335000923, -14.604502947127
462, 50.385984226357, 69.246314108098, -15.52894053069
463, 48.975438455523, 73.51976745647, -20.035310645053
464, 49.050949416016, 73.668031252031, -17.926639639277
465, 49.450398864029, 69.144343761233, -15.277515276539
466, 49.650913541501, 69.348825601886, -16.25715242233
467, 49.644774034073, 68.57936720451, -11.754436351102
468, 48.713038025352, 69.329625910736, -16.002867151632
469, 48.961600154144, 69.502859177815, -16.973123162093
470, 48.490108568919, 69.112182015096, -15.05225021026
471, 47.732890365152, 69.453892158607, -15.749603647947
472, 47.528996464494, 69.261520368721, -14.836889334666
473, 46.82179806892, 69.814726427841, -15.372599511009
474, 46.747526153658, 69.641624970225, -14.32411545524
475, 50.543128881711, 69.47072607723, -16.537606018615
476, 46.269906680381, 70.674330483549, -14.851313404087
477, 46.217827430644, 70.236391019913, -13.722969513447
478, 46.084517198952, 71.270168337182, -13.794505544629
479, 46.035201869851, 70.703147097716, -12.740784539292
480, 46.752294887818, 71.632829191782, -12.936495823681
481, 46.509134563647, 71.20427381011, -12.264274240404
482, 46.297006940175, 71.867362764089, -14.889670543046
483, 47.902452551964, 71.846210350915, -12.582015041019
484, 47.259487215436, 71.465927706869, -12.070410455531
485, 48.189279361528, 71.585519395241, -11.740278062456
486, 49.990785910077, 73.711594940743, -21.671178385075
487, 47.111129252244, 69.965413643298, -16.379424427065
488, 56.148680576379, 68.238677512426, -10.158376244394
489, 55.699828686543, 68.514030806558, -11.048625146605
490, 46.24931623904, 69.906004566598, -12.864071318351
491, 47.711694356563, 72.278608585961, -13.582056065938
492, 53.337833299459, 69.00690172937, -8.7907641017434
493, 52.412498660751, 69.094702931828, -8.8752602521778
494, 52.918309554978, 69.892709953725, -8.5908961582067
495, 52.024321605309, 70.014432104827, -8.6917138904361
496, 52.590739528618, 70.830219074383, -8.5268373052281
497, 51.66710070005, 70.904923021455, -8.708834122749
498, 47.557752869226, 71.273928720373, -10.979420516137
499, 51.143305175678, 70.066282905296, -8.8203569496712
500, 50.766614802486, 70.895408066879, -8.9292266920477
501, 50.327222338979, 70.126068567894, -8.9525601346583
502, 51.44519754288, 71.478046375065, -9.4610447142603
503, 50.529492478937, 71.420645786555, -9.6411659661254
504, 51.083266114764, 71.637752935046, -10.432942528044
505, 52.121304752291, 71.65927271154, -10.260421017265
506, 51.787542951053, 71.801933983322, -11.308256454252
507, 56.649541980201, 68.52384439489, -10.975404152949
508, 56.216239555424, 68.750353091872, -11.839544615612
509, 55.230988464677, 68.761249103334, -11.955207103904
510, 55.771280875606, 68.988032298597, -12.725885263612
511, 54.877544829261, 69.004224063733, -12.844474823776
512, 55.364331094276, 69.241261463952, -13.625043036801
513, 54.436556475836, 69.236911608768, -13.747591610343
514, 54.957373102185, 69.442925298403, -14.571413663133
515, 53.97670207022, 69.387627390389, -14.601762858631
516, 50.499505843216, 72.498451243215, -13.641957889883
517, 50.581128702315, 72.228588556316, -12.903154701332
518, 49.299000341935, 73.194406509649, -23.420636783069
519, 49.977791447109, 71.944847793931, -22.661382622798
520, 49.658449783595, 71.429891325881, -21.908973999456
521, 56.372547558507, 69.263552171299, -13.585641631369
522, 50.309674213485, 68.326208493278, -10.986310766567
523, 53.581695311934, 70.689696890269, -8.3844905632152
524, 56.478222162715, 70.958364336271, -8.8057590694067
525, 54.524371287537, 69.577880807425, -15.515435208748
526, 53.516402452472, 69.51924672837, -15.528634593879
527, 49.355715487236, 68.27448582971, -10.902283631617
528, 48.813594940894, 68.468682818385, -11.411396273785
529, 48.575096719156, 68.260443376539, -10.836745703341
530, 45.967408914406, 70.046381128437, -12.243246315135
531, 47.541094334163, 69.202868086218, -13.885111930831
532, 48.047597239028, 68.5449920105, -11.412478202228
533, 51.852359833211, 69.114340123599, -13.934943691284
534, 54.087759405895, 69.785707620108, -16.4173378843
535, 54.507281437249, 70.41411139996, -18.795908435699
536, 56.624456476711, 71.518591139493, -11.016585261755
537, 53.082377960207, 69.692216541849, -16.387618491477
538, 47.923999066444, 68.278456290373, -10.768673950033
539, 48.937010732606, 68.103423976367, -10.167851907326
540, 50.575984205547, 69.302608390554, -9.0647320172513
541, 55.708045646655, 71.579875523716, -10.495703527675
542, 54.768481620852, 71.703826024436, -11.082697407206
543, 47.239916874758, 68.593515675296, -11.151006554536
544, 48.944851248411, 71.927009085855, -22.466531912816
545, 48.713840124447, 71.342994703155, -21.650960290101
546, 49.404063270846, 70.876221435131, -21.09853788676
547, 48.494975018583, 70.816561609006, -20.864486001029
548, 49.217819165237, 70.325856411777, -20.352884810166
549, 48.277365167399, 70.261593341252, -20.09956658388
550, 47.894941206738, 71.322164537703, -21.298869631399
551, 48.943440997474, 69.945145138548, -19.539690849698
552, 48.082898927203, 69.971344964681, -19.191170323362
553, 47.35504233869, 70.435695926166, -19.704828348676
554, 47.310272991884, 70.239802740236, -18.677876030766
555, 46.827566797617, 71.022750125592, -19.116618150902
556, 49.972133459191, 70.11039828362, -19.76161148378
557, 46.775722189332, 70.799841013271, -18.049639665265
558, 46.694233763476, 71.730834912175, -18.421411963166
559, 46.847623227077, 72.021010850605, -19.520506058211
560, 46.564670963043, 71.571317624791, -17.4045429927
561, 59.69509914909, 68.22627901678, -9.7435952824603
562, 57.126580679851, 68.252008702645, -10.163279234989
563, 59.550335061593, 68.292068575592, -9.0533181264471
564, 60.010787062524, 68.921018968155, -8.6963119217139
565, 48.678060561725, 71.486864397823, -10.947845896059
566, 48.257507067722, 71.199394372484, -10.13051263013
567, 47.342500359374, 70.964451368336, -10.20842454981
568, 47.964412182356, 70.575177779893, -9.5615367773611
569, 46.708860475983, 72.491298164431, -17.706791336315
570, 54.894506907627, 71.573114400397, -10.072423791616
571, 57.336349511642, 68.756886185606, -11.794265339744
572, 53.080036970414, 68.594728838318, -11.562322937507
573, 52.928008212866, 71.77597335484, -11.088772198101
574, 46.553465692944, 72.280260025988, -16.756559749213
575, 47.188078464483, 73.035261482524, -17.004796012932
576, 46.984550449077, 72.714838876792, -16.095980801364
577, 49.645929155054, 69.909571823981, -18.899884974196
578, 50.698749692084, 70.032310702575, -19.067436705389
579, 48.67559539264, 72.157856046953, -12.983463657112
580, 48.881093746403, 72.564797064605, -13.849104627642
581, 48.617925196492, 68.79112399364, -12.189784561112
582, 46.644840475198, 71.045894130035, -11.606213381756
583, 46.13139533491, 70.335556219341, -10.860623777444
584, 47.143455299901, 70.056586618083, -9.8077844665873
585, 52.144850786232, 72.293899310589, -13.169786848822
586, 53.38466968384, 71.351070490097, -9.0334037069259
587, 48.15925975047, 72.664761418783, -14.598740443427
588, 47.953122748654, 69.631763943549, -9.55167002946
589, 49.68368005522, 69.312662783109, -9.2226368301974
590, 52.900745677714, 72.192932455477, -12.974334567459
591, 53.099271189906, 68.921054745021, -12.728008383247
592, 53.556598194242, 69.963180245475, -17.242049941753
593, 52.549968868877, 69.858273874419, -17.195807836203
594, 49.27460890116, 71.743468243571, -11.760052996519
595, 51.050025738489, 70.771076067115, -20.880639785576
596, 54.308936562162, 71.862259949068, -12.091823649271
597, 53.091158811328, 70.148092132163, -18.106662176302
598, 46.423560157187, 71.416580396664, -16.433563559087
599, 52.150060446101, 70.051423639724, -18.156606673304
600, 52.710230522933, 70.263014040285, -18.957670479913
601, 47.82489676887, 73.047607958623, -16.265881897877
602, 50.779248740238, 71.786512746293, -11.437829740288
603, 55.099229143401, 69.818608489472, -16.349782011754
604, 58.780758498914, 68.073046483892, -9.4639200903875
605, 52.542694028423, 69.454103124679, -15.603619608407
606, 49.325535936917, 73.597420803346, -22.538491053691
607, 48.785903059649, 73.470879814186, -21.882853693444
608, 48.337636521555, 73.266005453115, -22.924614998076
609, 47.758518896136, 73.063281741427, -22.000125790086
610, 47.808068534611, 72.586398260261, -22.663859666927
611, 48.35340010994, 73.297573682168, -21.030135087042
612, 47.48757650355, 72.892272493664, -21.001313541135
613, 47.883338288827, 73.116454408193, -20.151129275985
614, 48.218529180108, 73.365643812659, -19.228961340333
615, 47.469634783738, 73.228878820268, -17.965873206536
616, 49.172558447575, 72.739987735317, -14.676507007143
617, 49.004535811437, 70.92703618188, -9.496910816953
618, 50.082000047571, 71.590257387833, -10.580457601367
619, 60.437048482453, 70.168094995356, -9.0734742643941
620, 50.149321101536, 69.832724187093, -18.093058571622
621, 54.70445037363, 69.649741487874, -8.4447806953324
622, 55.079409317176, 70.436863384635, -8.2661688218041
623, 47.439408936367, 72.891611607184, -19.36661700176
624, 59.181989981812, 69.040990924724, -12.757701957539
625, 58.202321531169, 69.126969936275, -13.072813940304
626, 58.026051492887, 69.374241270684, -13.911596565025
627, 53.537927300875, 69.185141495148, -13.744179797306
628, 53.894732732988, 71.686618252803, -10.481120258587
629, 58.064288967269, 69.790646739278, -16.355817775244
630, 51.450906996002, 69.389301764648, -15.785394364915
631, 48.139546073778, 69.871441127258, -18.297103329706
632, 48.98236046043, 69.020416390547, -14.136485640044
633, 58.136543710358, 68.600534448103, -8.630380994511
634, 47.156376510847, 72.450881787217, -14.546688251818
635, 51.296176189203, 72.041862815407, -12.363971889118
636, 54.698851067181, 68.534172548471, -11.199181104274
637, 52.951873891778, 70.669029580773, -20.2993450929
638, 60.890772929929, 68.991793395034, -8.8974010479857
639, 46.558544425463, 69.410794382416, -12.260899537422
640, 47.073083047119, 68.389348948363, -10.421017349606
641, 46.369930764046, 68.948542605926, -10.904446625767
642, 56.665367783097, 68.066565858823, -9.2716078773353
643, 59.103442303239, 68.476192957236, -10.592547752416
644, 51.819313082509, 68.365648115821, -9.3911280944509
645, 54.423759221348, 71.143548161336, -8.6615025315384
646, 50.936713889305, 70.306652370704, -20.000004488132
647, 55.878386494625, 71.376499440923, -9.5879148867758
648, 50.105694149247, 68.59172144436, -9.4480421840708
649, 55.928627161918, 69.468035544404, -14.449857411156
650, 55.446659982254, 69.590941133549, -15.338543241836
651, 57.03932378385, 69.487602390216, -14.412889391265
652, 59.955572759124, 68.675378793068, -11.161917777247
653, 58.270891853946, 68.649514104877, -11.274872435813
654, 52.369346369468, 68.979110313119, -13.080939395556
655, 54.05901673888, 68.761189108981, -12.044079806679
656, 46.517921114766, 70.601251605542, -15.928901447262
657, 49.39572018096, 73.585068137158, -21.060977554391
658, 49.825326240714, 69.579528912216, -17.193858221548
659, 57.713561092275, 68.065474648008, -9.3301756572079
660, 51.455748350348, 69.701580352819, -17.050936808658
661, 54.621032919617, 70.058903658212, -17.31791193313
662, 56.414882647492, 69.605420631455, -15.32259368151
663, 47.997086201364, 69.562301527133, -16.652815761108
664, 47.375279656005, 69.987301175604, -17.511698555684
665, 52.399446168134, 71.436452111719, -9.2757435971658
666, 49.269250732988, 73.496917210556, -16.957410000053
667, 56.72971021259, 68.980874923423, -12.646012610586
668, 48.677735615654, 72.924501919364, -15.555079727574
669, 58.81922074478, 69.472880009172, -14.431555550208
670, 47.613794095264, 72.721408312551, -15.389465741228
671, 56.022597518403, 70.375124315317, -8.2372682084474
672, 52.325338325198, 72.004264371893, -12.270630194201
673, 57.456017848164, 69.643963014231, -15.610360789156
674, 49.738452853904, 72.322172626546, -13.166583446715
675, 49.124970446787, 69.75267810912, -17.962873006626
676, 46.676227427748, 70.681715535658, -17.00611731725
677, 47.116411864497, 72.452231365127, -21.779255833264
678, 46.997644675664, 72.051721565389, -20.72750676293
679, 48.87661033237, 68.973401268123, -13.128325683433
680, 48.235587659458, 73.444275956941, -17.214298128403
681, 56.031655088093, 69.970607210118, -16.831860603712
682, 48.285009419529, 69.05764395417, -13.652141649321
683, 48.075162017864, 71.80941348731, -22.059253798881
684, 47.923520904432, 69.059666597294, -12.944823441755
685, 47.296953901553, 69.078586265607, -9.7600899447305
686, 46.385206485727, 69.510042710931, -10.229645819849
687, 48.282028799639, 68.25197030206, -9.6455753634948
688, 51.740681839012, 70.195102499724, -19.219955145306
689, 56.925167004915, 71.269108782394, -9.6117485487986
690, 57.310398291758, 71.392512180805, -10.502472672521
691, 47.219320963755, 72.62354071663, -20.083287560038
692, 46.921458631442, 71.281437694158, -20.111918352336
693, 53.023304691676, 69.319724979908, -14.633600535532
694, 58.076631555261, 68.340437222182, -10.327669950228
695, 50.164327053606, 70.503211434727, -20.56375681837
696, 53.100990621207, 71.59513379981, -9.9140295511382
697, 49.944415893833, 70.922088230236, -9.1915359403478
698, 50.28828633627, 71.065463568202, -21.371501854242
699, 48.70335808273, 69.275745650445, -9.4135443682765
700, 52.186562455411, 69.606601472326, -16.400780235879
701, 45.981132377532, 69.604211503735, -11.485074006907
702, 55.495278764172, 71.040914714157, -8.7054133066781
703, 47.637022512291, 70.837728882425, -20.522913152098
704, 49.687647324875, 71.329282455079, -9.7842604574045
705, 47.419331228015, 68.953571775855, -12.054938734587
706, 46.84912430762, 72.442769616993, -15.323152071731
707, 54.618615122665, 70.543839185506, -19.396657776044
708, 53.719974784734, 70.392693268354, -19.074932492593
709, 54.048836129983, 70.23167177047, -18.099322982468
710, 53.299396934994, 71.911172350872, -12.031167978083
711, 53.976806718388, 69.019775130172, -13.002783978234
712, 58.589075693327, 69.531587974272, -8.358391096022
713, 59.658636615088, 69.738134412878, -8.4671427310359
714, 46.939340273612, 69.394638720132, -13.197654424413
715, 53.808061351803, 68.441379315438, -11.005665504181
716, 51.490181606742, 69.221303486719, -8.9540717448642
717, 50.80878585599, 68.168735431917, -10.060201994479
718, 49.774059551802, 68.158382989332, -10.162335014797
719, 46.656122832591, 72.050950977099, -13.882961831215
720, 50.103109980085, 71.939027974572, -12.189921842258
721, 56.461118189223, 71.476214588127, -10.185923879009
722, 54.115484075774, 71.516579174787, -9.6703208661975
723, 54.927975658577, 70.325582652869, -18.179718781781
724, 54.223962006209, 68.878738394097, -8.7393194685651
725, 52.085224545533, 69.256213512291, -14.740110643269
726, 58.293202959894, 68.867283742908, -12.192796163349
727, 53.093623609507, 70.453716000744, -19.618024865565
728, 48.660553502817, 70.155118417468, -9.3185983938739
729, 46.677107363738, 70.584455206012, -10.303922317795
730, 49.76687559266, 72.634718252405, -14.067019893756
731, 50.482698752827, 72.653787891076, -14.214066708154
732, 47.008709242972, 72.653723413417, -18.629613341228
733, 46.421671961074, 72.075388548861, -15.851237426602
734, 59.053653407819, 68.768133697578, -8.6249129575742
735, 49.060353533023, 73.648610399798, -18.932604822656
736, 51.090008675734, 69.925332148963, -18.114663781967
737, 48.792321222694, 72.533007497135, -23.187748680591
738, 49.525993951533, 72.315479629104, -23.138606604911
739, 61.085034720421, 69.711216216956, -9.0183731980654
740, 59.289978214758, 70.806593185505, -9.574874124197
741, 53.821610617738, 71.781360298444, -11.356111503957
742, 49.323877365476, 72.015211058844, -12.518256337762
743, 45.950542107383, 69.632922175327, -10.811075837066
744, 53.81129816801, 69.741703469698, -8.5087389228238
745, 48.820835753034, 69.868467114933, -18.750707335151
746, 57.279275142263, 69.224359073658, -13.416684584763
747, 57.507913594513, 68.529374342485, -10.943332727446
748, 49.232625163228, 68.507489125511, -9.5459846757844
749, 55.034644529122, 71.349230045835, -9.3134818638846
750, 53.661830809279, 70.645808535535, -20.036082777609
751, 46.838292183407, 70.97610891168, -10.831238012117
752, 57.968775812496, 69.52279762621, -14.790074662336
753, 49.584323894285, 72.913570831109, -15.394263436751
754, 60.420917560504, 69.524040405471, -8.6125689968627
755, 51.591050446928, 68.989386275883, -13.258758783355
756, 52.686254184546, 69.145242315039, -13.801613169341
757, 50.593945994935, 69.701552234859, -17.385352826261
758, 58.939980424157, 70.241621628299, -8.5066588957231
759, 49.945061875542, 71.720953623398, -11.402896109835
760, 60.011833424575, 68.463927416786, -10.421586051133
761, 55.953173976466, 69.75201316235, -16.022263861435
762, 46.689793506701, 69.028062142642, -11.583080672363
763, 49.45274788056, 71.592030493881, -10.997864238369
764, 55.172912815947, 71.766426816911, -11.945250711141
765, 46.318735121666, 71.343121016096, -15.639201492094
766, 50.080042173241, 73.712013132989, -20.974696732027
767, 48.293343867662, 69.679763234627, -17.486252268954
768, 48.681308811459, 73.229517308052, -16.395349956014
769, 51.088936957176, 71.236570309451, -21.624197410924
770, 48.326096051621, 68.109483121494, -10.248474970551
771, 47.77145518633, 68.123313087992, -10.22848260683
772, 47.476214957834, 68.201183992504, -9.7328981670065
773, 47.98084616146, 68.940200411607, -9.5941450220236
774, 49.468962491863, 68.853873055058, -12.5919132525
775, 59.960802010463, 70.60759767708, -9.5352396980176
776, 47.27764096854, 71.742406869221, -21.384314913055
777, 47.730835084778, 73.252342757092, -18.711879877739
778, 57.407576560509, 69.887253722028, -16.611820222482
779, 49.166905993816, 71.431524986956, -10.322133545625
780, 48.249158598302, 73.51087843385, -18.306416550475
781, 49.782169252166, 72.726102391216, -23.620925148365
782, 57.568717666417, 68.974584202448, -12.601454856774
783, 53.102753950278, 68.38260696017, -10.884779666154
784, 60.033128490359, 68.796208094334, -11.727597144156
785, 49.52562428775, 70.252838030578, -9.1061715290887
786, 47.197242390147, 71.367469648811, -20.76285580719
787, 50.935478428459, 68.641611796412, -9.2688709109265
788, 48.414822106725, 72.194522289673, -22.646781291742
789, 54.298910389932, 70.350473318118, -8.3606724743345
790, 46.00946082905, 70.555119871791, -11.747506672945
791, 48.692119795324, 71.878670998289, -12.330323064806
792, 55.321176152982, 70.006689329811, -17.04343692943
793, 52.486773539718, 70.403624938262, -19.69056589975
794, 48.143908785304, 69.084808307287, -14.341154459315
795, 50.024161499703, 71.829017573542, -18.450048069034
796, 49.110659920117, 71.292845754804, -16.81220864279
797, 52.575877844127, 72.572669446368, -19.310322131719
798, 47.993823625814, 71.815227053486, -18.772503268664
799, 50.062163519171, 70.752840610422, -14.826433466356
800, 48.563728030217, 71.273888918733, -13.940580356775
801, 54.636731928001, 71.74483728597, -19.677239937841
802, 53.163901466119, 69.946000621318, -9.9114651604991
803, 49.650622485883, 70.051894990654, -11.866909932008
804, 51.838982057221, 71.440971539166, -16.094543373381
805, 51.906120416587, 72.078864053309, -17.929932798931
806, 50.891482266485, 71.774712005375, -19.861575277545
807, 53.438387351541, 72.234267648655, -17.623402999687
808, 51.633876516817, 69.815102598125, -10.453165807556
809, 50.601962759593, 70.874337812053, -12.965225592208
810, 52.402528311098, 70.707595668435, -14.514357079283
811, 54.844176660514, 70.001755910992, -10.051193451705
812, 50.716868969847, 71.093856108095, -16.764705757478
813, 53.887644134015, 70.827540016487, -13.833674576435
814, 47.71516017928, 71.193740243827, -15.588414831121
815, 53.77920317603, 70.328089621719, -12.046322176502
816, 57.295250688247, 69.492841585424, -9.6581324385081
817, 53.497918968115, 70.458802104619, -15.354811421143
818, 51.937252024019, 70.495922919177, -13.184412468094
819, 54.761084610098, 71.209459993942, -16.601752627907
820, 49.419497100271, 71.386171223098, -19.982965674095
821, 56.276725211572, 72.309100145062, -19.347438922502
822, 55.383458000479, 71.993358989357, -17.651653173453
823, 48.256266240417, 69.867941876188, -10.638764838809
824, 49.939176460889, 72.350722777099, -20.78399401161
825, 57.155198748964, 71.667708092778, -18.101949888547
826, 55.336271160619, 70.799297404124, -13.662949590673
827, 56.195839660863, 69.877821892915, -11.0257535254
828, 50.907330464301, 70.803183753173, -11.390974817731
829, 48.401742478756, 70.69693439542, -12.516685768386
830, 50.224899143806, 70.417527935861, -10.063547672193
831, 54.21632169256, 72.362673427807, -20.875523944799
832, 55.308245896757, 70.282439837155, -12.362820389472
833, 57.340112859091, 72.222013580295, -20.068691698111
834, 56.248296132462, 72.340972318737, -21.14306783441
835, 58.549288576321, 71.707783381448, -19.683034620656
836, 54.652603245405, 70.999187839059, -15.01414609895
837, 57.108820695754, 70.321739175797, -12.243395835261
838, 56.085116623044, 71.360643592342, -16.951753692893
839, 52.109557867279, 72.728062350678, -20.829001069052
840, 49.971028697866, 71.705201012774, -15.818554581171
841, 53.001199306684, 72.073306081824, -16.69362734124
842, 47.681390153315, 72.126552620175, -17.342816823645
843, 56.601767799946, 70.960983101638, -15.927145236132
844, 58.474435709634, 69.603512667083, -9.4521535599984
845, 56.861181005368, 70.692334419162, -13.554400928713
846, 49.310615797672, 70.359954400238, -15.8569188087
847, 51.094021979347, 70.223165940084, -14.253405374903
848, 59.983841594552, 69.822649174957, -10.323297107433
849, 48.925297547664, 72.545438001387, -17.709045948046
850, 55.165071171848, 72.318775547799, -21.806587308295
851, 52.453891400201, 69.940684759297, -11.551528337721
852, 57.277762671153, 72.223755937176, -21.659525688247
853, 57.287562627607, 71.172382335366, -17.081548604867
854, 53.02675887083, 73.062248860293, -20.26181144426
855, 47.872884931743, 71.917528187059, -20.224852871933
856, 51.000572784655, 70.443125278485, -15.739058731274
857, 58.127937729533, 70.199377788777, -12.801338361283
858, 58.126123179249, 70.018414468207, -11.539175322619
859, 54.81008551931, 70.750224927418, -11.307090921842
860, 51.24461301368, 72.841835245305, -18.735983417924
861, 53.283731920023, 72.499657258274, -21.677571769407
862, 58.293124298358, 71.587987290876, -18.255477263851
863, 50.901403540954, 72.531815812823, -17.320014213776
864, 49.431075231381, 71.233193367399, -12.910755962455
865, 56.028382689164, 69.132424504262, -9.6736539042817
866, 59.189290531286, 71.728334275983, -20.811211790299
867, 49.153519559162, 70.661568785463, -17.98845904103
868, 46.994339262874, 69.873107360476, -11.085352919159
869, 48.915293951327, 71.765887665048, -15.099350708858
870, 47.875932039955, 70.72719498822, -16.671324616204
871, 50.073036163957, 72.855012152112, -19.452853057641
872, 57.757046017118, 72.353843296482, -22.736848444912
873, 58.557839324146, 72.064904130294, -21.783152199086
874, 51.600549559699, 72.64017365049, -21.929109146712
875, 56.274008043717, 72.432030841718, -22.856748250158
876, 47.084455984269, 70.473348980456, -12.567773520615
877, 58.062440115735, 70.622624904758, -14.021970218193
878, 57.639285646067, 70.790631394682, -16.175750383473
879, 51.352896192322, 71.00919839567, -18.761522151877
880, 53.10148628817, 71.176215655723, -12.869590355852
881, 53.677510618243, 72.734859813906, -18.790783450294
882, 51.439418978853, 71.735594512245, -14.952040327922
883, 53.891179508603, 70.476697222132, -9.2668898437225
884, 56.076179034171, 70.881299767857, -14.675824895999
885, 50.898827632257, 72.252619060023, -16.172692920189
886, 47.240855829915, 71.383604444269, -14.665246038635
887, 53.787493232804, 70.995097435475, -17.19149105649
888, 60.342464865344, 69.725790866363, -11.50087999321
889, 59.913262667722, 71.781762126327, -21.970559910504
890, 52.933507816911, 71.273997642, -18.516873289153
891, 50.218190348266, 70.879011117383, -19.27433029304
892, 49.706500598539, 70.059525523146, -13.916518730468
893, 59.080212629619, 70.475482949015, -13.346434915476
894, 59.370846298783, 72.11207160447, -23.054516948799
895, 52.511693005978, 72.910856943171, -17.994140893307
896, 55.344671678329, 71.632121348661, -20.454974870577
897, 55.265065277177, 72.775157815511, -23.40045631427
898, 54.070651625881, 72.673358109155, -22.559785692207
899, 49.673753165578, 72.457637617134, -16.818277297152
900, 49.466793852377, 69.265813364889, -10.409905139203
901, 53.762402606606, 69.562052926741, -11.23091820083
902, 53.240958531976, 70.791413166135, -11.050841705512
903, 47.500113617302, 70.390027296784, -13.893852888538
904, 61.080111753198, 71.480151164789, -21.703454367837
905, 53.539972935401, 71.494948155321, -19.771300493049
906, 54.248229323876, 70.063151707458, -13.029143734519
907, 58.542840424305, 71.078062485373, -17.080753698062
908, 50.545798150106, 69.428565729103, -11.317691635234
909, 47.214124491732, 71.806656058585, -16.277431505655
910, 59.23316272923, 70.142606731407, -12.022376808861
911, 49.34251768124, 69.802545596308, -12.862146524073
912, 60.616574955567, 71.764468109649, -22.882908971126
913, 52.461507418391, 70.92677505079, -17.2266350506
914, 57.089508738155, 72.538339910216, -23.732147952373
915, 52.275936801034, 70.419797594998, -9.4849981707845
916, 52.336297433214, 69.01996205572, -9.9490656681347
917, 52.050246321534, 70.301010419053, -15.350747781748
918, 58.779394561684, 70.740557185176, -15.997017051312
919, 47.865811031093, 70.913727507592, -18.003013407553
920, 54.23364748741, 71.34127849098, -18.644905104687
921, 59.537564525589, 71.455618174239, -18.920570624325
922, 50.890944771995, 69.145898688551, -10.019143110872
923, 56.411687371945, 70.565273898135, -10.119482145387
924, 52.567829921278, 71.804905589386, -15.408186779088
925, 51.60299391368, 73.077247562685, -19.821180065952
926, 48.452668914104, 70.111455940301, -14.915445137648
927, 51.143174448184, 71.830853837014, -21.04556793629
928, 48.763900634723, 72.219119795217, -21.056327694467
929, 57.181406203085, 70.478782237596, -11.106988998847
930, 50.807064182212, 71.797067193452, -14.108685657597
931, 54.472227833341, 72.355061477246, -17.485317593234
932, 55.075284155835, 72.771133634935, -18.802251474905
933, 48.946999598515, 70.785179854982, -19.056247275114
934, 52.774024659598, 69.929074233486, -12.589133552022
935, 52.193573831062, 70.966318185432, -12.066380073372
936, 52.854869016974, 69.989443812955, -13.643775670014
937, 51.493111019126, 71.482460976368, -13.616464785581
938, 56.179583648277, 71.146107871097, -18.119247143457
939, 59.932216687411, 71.437214537421, -19.964385034872
940, 60.581897686865, 71.206002808708, -18.941281629736
941, 48.813215031665, 72.468595282825, -19.309293588608
942, 60.019282699634, 71.8651331915, -23.885559784681
943, 60.240860149184, 70.016594845575, -12.709208429541
944, 49.883147002197, 70.304425267031, -16.592155421442
945, 48.551257817688, 72.256167663328, -16.31096166699
946, 48.139912250018, 70.543411961773, -11.428537197064
947, 55.316663797337, 72.84707965578, -20.252352662599
948, 49.41995167685, 70.575425865704, -10.738352812566
949, 53.690311062543, 71.654400816061, -14.754873980594
950, 51.44967153619, 71.018913240927, -17.62411067534
951, 50.244012694489, 72.829915838092, -22.095081830344
952, 59.106109125546, 70.52959186633, -14.935791781902
953, 48.419259307402, 68.900512462934, -10.342172193567
954, 54.489959519503, 71.152071268138, -12.811227752301
955, 61.47194111934, 71.111704053379, -20.586616511026
956, 52.796364689478, 69.24182238601, -10.779654416827
957, 49.797832064101, 71.798476386376, -13.995195509802
958, 55.138130011546, 69.408833211233, -11.069721140867
959, 50.11216959956, 72.911578233845, -18.080363279408
960, 59.282394030409, 71.343095176721, -17.781291066114
961, 58.136004310253, 71.807584613309, -20.832828710935
962, 52.404159476634, 72.818446854441, -22.824578722998
963, 56.232414884575, 69.943230743494, -12.732750808651
964, 52.201937370954, 70.763370658304, -10.717521336128
965, 59.535437694167, 69.390666306766, -9.4134782733782
966, 54.989742978122, 71.002472495605, -17.654925096972
967, 48.105284684709, 71.018588247251, -19.59706326782
968, 52.174258077691, 71.379608201392, -19.570641340516
969, 60.015893766845, 70.783691561257, -16.904276940373
970, 57.60937990878, 72.475869079153, -18.988513382014
971, 53.942476856764, 69.142111884393, -9.7982109650028
972, 48.578208294874, 69.837723340778, -13.634700682128
973, 55.467443330418, 70.810755427087, -15.813545189187
974, 58.978983802718, 69.981335512107, -10.717111081577
975, 56.082901062505, 72.437320665745, -18.199061563211
976, 52.905245734924, 70.618294324392, -16.319031356865
977, 59.85760358185, 70.501478850536, -15.715248599249
978, 50.816961600084, 69.763683274751, -13.106372446603
979, 60.478888371133, 70.955257639159, -17.822893838087
980, 54.121666543874, 73.083286324791, -19.920707311343
981, 58.541970926738, 72.166585620356, -23.857709863705
982, 52.697024502189, 71.710636392059, -20.672130032172
983, 50.335726979306, 71.271827803375, -20.483438040747
984, 51.447529397231, 69.801508201406, -12.203231875181
985, 55.325265585943, 71.29960157117, -19.013438807881
986, 56.042472939999, 70.845279022014, -11.684683035811
987, 54.574557075549, 69.556074161489, -11.978292668891
988, 50.278227256215, 70.775686823133, -17.819449819119
989, 53.888106325351, 71.828591233937, -16.08112623717
990, 52.155815039411, 72.357155630431, -16.777218925667
991, 60.26388569753, 71.454117105505, -20.997282820929
992, 47.896763980773, 72.605545564274, -18.317201335055
993, 60.683969076407, 69.261834293521, -9.7052215124892
994, 57.719016632468, 69.307573592981, -10.673905721718
995, 57.256639910367, 71.378698528857, -19.161027189687
996, 48.803453852005, 70.308121569933, -17.019084825656
997, 56.728225238839, 70.036988804296, -9.0346368890653
998, 57.976729795401, 70.398336086253, -10.150892175649
999, 51.052227195946, 70.582553315391, -9.7181457987249
1000, 54.50288709726, 71.588257789772, -13.944349998726
1001, 61.657623424521, 71.568306770255, -22.857540803423
1002, 57.233296228831, 70.884013068668, -14.866067941512
1003, 55.492215778588, 70.40526766284, -9.310103054138
1004, 56.192214440195, 71.094307089123, -12.894650791373
1005, 52.667920228242, 71.646760397326, -13.994054556628
1006, 56.338309781758, 71.507275614099, -20.094763499176
1007, 58.158071900322, 70.471015639096, -15.247846706971
1008, 50.888606473773, 72.972184458364, -20.658926033699
1009, 59.905020897694, 70.319441822931, -14.167097745742
1010, 54.106000058186, 70.844290439485, -10.357542908106
1011, 46.451153872812, 70.077242515207, -12.119823878663
1012, 46.807492805469, 71.742508544374, -15.458820875716
1013, 51.208637486119, 72.873849151481, -22.955748638033
1014, 54.794944750321, 72.680453079267, -24.107130583569
1015, 53.926138852047, 72.781507960667, -23.69608432644
1016, 60.957005007018, 71.546351926098, -23.713533012831
1017, 48.483887352694, 72.787926714046, -22.487281343467
1018, 47.738600680178, 72.076309288207, -21.147615931199
1019, 59.380318288011, 71.971426954545, -24.430743046175
1020, 61.549120054871, 69.191761638399, -9.8686621047038
1021, 47.821370065143, 68.557883894353, -10.144840951232
1022, 62.388204648439, 70.927907502671, -23.4767375491
1023, 57.451042608566, 72.32157556124, -24.50018989393
1024, 62.192281726986, 69.44599510739, -11.741383110299
1025, 49.929512264223, 72.96527831633, -23.072280202067
1026, 62.874913339881, 69.783466351045, -14.699152594429
1027, 63.452346996962, 70.851280094743, -22.14163264145
1028, 63.427529745684, 69.88008439381, -16.569835685607
1029, 63.963356170236, 69.868921316004, -18.074086360799
1030, 63.833163652905, 70.326441057874, -20.175066332493
1031, 63.249757312504, 69.843427321146, -15.889918124735
1032, 62.444220225358, 69.628437522938, -12.696809261487
1033, 61.735333266143, 71.24718465297, -23.593762530606
1034, 47.665246648981, 69.030027669823, -10.734064479047
1035, 49.229819260306, 72.871082069774, -22.769035239132
1036, 55.626624810712, 72.615537263868, -24.501129065216
1037, 48.197769865038, 72.516364169651, -21.820031352385
1038, 63.09655485077, 69.811246884588, -15.340390996173
1039, 61.500266759545, 69.309440989087, -10.443359039815
1040, 63.480216930764, 70.467944639679, -20.679565446138
1041, 63.123509165729, 70.845305525327, -22.920634468278
1042, 63.97238828459, 69.959895163971, -18.833656139254
1043, 63.721835858844, 69.849822001199, -17.30630792135
1044, 56.580374776817, 72.470759368015, -24.642584321974
1045, 61.992466723786, 69.329629867746, -10.938960640111
1046, 63.728605505044, 70.57990598506, -21.339776100415
1047, 63.74438407629, 70.20672943573, -19.431878001721
1048, 62.654518797741, 69.778686759749, -13.863025386826
1049, 50.617357741016, 73.104780613867, -23.304925227727
1050, 50.482312283218, 73.025578591047, -22.895786953521
******* E L E M E N T S *************
*ELEMENT, type=C3D4, ELSET=Volume1
1, 515, 836, 817, 813
2, 809, 930, 517, 937
3, 847, 462, 459, 799
4, 633, 659, 816, 844
5, 792, 838, 819, 973
6, 926, 473, 903, 886
7, 435, 816, 433, 844
8, 534, 819, 817, 836
9, 816, 844, 694, 994
10, 325, 280, 1030, 248
11, 813, 826, 514, 836
12, 633, 816, 435, 844
13, 819, 836, 534, 973
14, 875, 108, 914, 306
15, 834, 850, 152, 875
16, 875, 108, 306, 897
17, 814, 870, 846, 926
18, 837, 845, 71, 857
19, 821, 834, 833, 1006
20, 984, 803, 828, 809
21, 186, 834, 875, 850
22, 468, 846, 870, 926
23, 827, 994, 929, 816
24, 809, 935, 635, 828
25, 982, 831, 861, 854
26, 694, 816, 659, 844
27, 236, 71, 845, 857
28, 834, 852, 190, 875
29, 827, 994, 816, 507
30, 809, 935, 818, 635
31, 432, 433, 816, 844
32, 875, 108, 897, 106
33, 828, 964, 999, 808
34, 799, 926, 465, 892
35, 839, 968, 927, 982
36, 792, 681, 838, 973
37, 541, 827, 811, 859
38, 982, 831, 854, 905
39, 886, 869, 926, 814
40, 806, 927, 839, 968
41, 635, 809, 517, 937
42, 820, 933, 795, 941
43, 185, 895, 841, 990
44, 185, 807, 841, 895
45, 515, 836, 813, 514
46, 1012, 814, 706, 886
47, 838, 176, 973, 843
48, 798, 795, 933, 941
49, 954, 859, 815, 832
50, 236, 857, 845, 877
51, 720, 803, 809, 828
52, 571, 837, 827, 929
53, 811, 827, 541, 923
54, 814, 471, 870, 926
55, 720, 809, 803, 864
56, 746, 845, 857, 877
57, 941, 824, 871, 820
58, 1050, 25, 1049, 1025
59, 197, 833, 821, 834
60, 1013, 1049, 332, 61
61, 887, 920, 890, 807
62, 468, 870, 471, 926
63, 581, 803, 829, 946
64, 954, 859, 832, 764
65, 581, 823, 803, 946
66, 833, 834, 355, 852
67, 104, 834, 875, 852
68, 827, 994, 507, 571
69, 827, 994, 571, 929
70, 827, 832, 508, 958
71, 433, 816, 435, 997
72, 544, 607, 928, 951
73, 571, 507, 747, 994
74, 1013, 1049, 23, 1050
75, 633, 437, 435, 816
76, 926, 903, 473, 472
77, 809, 892, 847, 978
78, 332, 1049, 25, 61
79, 659, 437, 633, 816
80, 402, 835, 833, 961
81, 954, 859, 764, 596
82, 799, 459, 847, 892
83, 114, 49, 1039, 208
84, 875, 108, 106, 914
85, 185, 807, 184, 841
86, 796, 795, 899, 988
87, 214, 861, 874, 962
88, 796, 795, 988, 867
89, 818, 635, 937, 809
90, 534, 817, 525, 836
91, 605, 917, 817, 976
92, 163, 797, 854, 881
93, 197, 311, 821, 833
94, 300, 839, 861, 874
95, 300, 861, 839, 982
96, 706, 814, 1012, 909
97, 432, 816, 433, 997
98, 544, 928, 520, 951
99, 534, 836, 525, 973
100, 508, 832, 827, 963
101, 746, 845, 837, 857
102, 800, 829, 483, 903
103, 812, 796, 899, 988
104, 795, 871, 820, 941
105, 1050, 1049, 23, 1025
106, 570, 859, 811, 1010
107, 533, 847, 818, 936
108, 537, 605, 817, 976
109, 513, 514, 813, 826
110, 884, 514, 826, 836
111, 826, 836, 813, 1000
112, 318, 973, 819, 838
113, 462, 846, 799, 856
114, 803, 900, 467, 908
115, 838, 843, 12, 853
116, 178, 831, 861, 898
117, 437, 816, 865, 997
118, 104, 834, 852, 103
119, 841, 895, 805, 990
120, 513, 826, 813, 906
121, 473, 814, 886, 926
122, 154, 850, 831, 898
123, 642, 816, 865, 437
124, 805, 860, 797, 968
125, 805, 879, 860, 968
126, 871, 925, 860, 806
127, 318, 973, 838, 176
128, 941, 824, 820, 928
129, 805, 860, 297, 895
130, 805, 797, 890, 968
131, 799, 465, 926, 846
132, 17, 831, 801, 896
133, 871, 925, 806, 1008
134, 186, 834, 850, 381
135, 17, 801, 831, 905
136, 432, 431, 433, 844
137, 806, 879, 646, 968
138, 1039, 49, 114, 993
139, 728, 900, 823, 948
140, 819, 838, 792, 966
141, 624, 893, 910, 943
142, 846, 856, 462, 944
143, 945, 753, 869, 840
144, 650, 836, 884, 973
145, 1039, 49, 1020, 208
146, 555, 798, 558, 919
147, 369, 862, 835, 995
148, 805, 890, 879, 968
149, 819, 822, 931, 318
150, 507, 816, 827, 865
151, 839, 925, 806, 968
152, 306, 187, 875, 897
153, 221, 838, 822, 975
154, 820, 891, 795, 933
155, 803, 829, 594, 864
156, 804, 812, 660, 856
157, 941, 824, 928, 463
158, 571, 508, 827, 837
159, 341, 845, 826, 884
160, 829, 876, 483, 903
161, 810, 847, 725, 936
162, 945, 869, 753, 668
163, 148, 248, 1030, 1047
164, 796, 795, 867, 849
165, 989, 807, 184, 931
166, 528, 803, 823, 900
167, 818, 847, 810, 936
168, 982, 831, 905, 18
169, 18, 861, 58, 982
170, 795, 798, 849, 941
171, 1020, 49, 1039, 993
172, 803, 864, 809, 911
173, 843, 878, 12, 853
174, 506, 504, 828, 964
175, 884, 514, 836, 650
176, 646, 879, 806, 891
177, 113, 82, 969, 979
178, 186, 834, 381, 190
179, 221, 825, 838, 975
180, 185, 161, 184, 807
181, 452, 851, 808, 956
182, 847, 462, 799, 856
183, 281, 826, 836, 884
184, 63, 995, 862, 369
185, 811, 923, 541, 1003
186, 6, 893, 624, 943
187, 1045, 151, 1024, 379
188, 1020, 49, 50, 208
189, 528, 803, 900, 467
190, 825, 395, 63, 862
191, 491, 886, 800, 903
192, 973, 317, 819, 836
193, 807, 278, 895, 185
194, 821, 833, 311, 970
195, 984, 808, 908, 452
196, 250, 325, 280, 1030
197, 843, 12, 878, 428
198, 50, 49, 1020, 993
199, 807, 913, 890, 887
200, 706, 814, 670, 886
201, 318, 973, 176, 317
202, 797, 839, 982, 968
203, 463, 824, 29, 871
204, 687, 1021, 772, 773
205, 468, 663, 471, 870
206, 948, 908, 830, 900
207, 856, 700, 804, 917
208, 95, 835, 402, 961
209, 796, 869, 840, 945
210, 580, 800, 869, 957
211, 345, 151, 1045, 379
212, 300, 874, 861, 962
213, 798, 842, 558, 919
214, 954, 859, 596, 815
215, 12, 838, 681, 843
216, 580, 800, 587, 869
217, 800, 799, 892, 926
218, 856, 700, 917, 630
219, 668, 420, 753, 945
220, 922, 916, 452, 808
221, 579, 829, 800, 864
222, 759, 803, 720, 828
223, 457, 847, 892, 978
224, 720, 803, 594, 864
225, 300, 874, 20, 839
226, 441, 811, 443, 971
227, 926, 903, 972, 800
228, 189, 861, 831, 898
229, 797, 839, 968, 925
230, 466, 846, 462, 944
231, 508, 827, 837, 963
232, 594, 829, 803, 946
233, 1013, 951, 1050, 23
234, 945, 869, 670, 814
235, 797, 860, 805, 895
236, 355, 833, 197, 834
237, 161, 184, 807, 931
238, 154, 831, 178, 898
239, 1035, 951, 606, 607
240, 435, 816, 437, 997
241, 782, 857, 837, 858
242, 843, 853, 144, 878
243, 197, 355, 311, 833
244, 796, 795, 849, 899
245, 175, 838, 825, 853
246, 399, 857, 236, 877
247, 461, 856, 847, 917
248, 895, 297, 333, 860
249, 509, 508, 832, 958
250, 881, 920, 890, 905
251, 720, 809, 635, 828
252, 138, 1016, 231, 234
253, 206, 1016, 912, 942
254, 890, 905, 727, 968
255, 562, 659, 694, 816
256, 800, 869, 799, 926
257, 295, 821, 932, 947
258, 1039, 3, 378, 993
259, 297, 860, 805, 863
260, 221, 825, 975, 272
261, 814, 869, 796, 945
262, 924, 976, 817, 917
263, 624, 893, 426, 857
264, 185, 225, 895, 990
265, 533, 725, 847, 936
266, 95, 866, 835, 961
267, 441, 865, 443, 811
268, 817, 819, 534, 887
269, 318, 822, 931, 296
270, 712, 435, 433, 844
271, 416, 263, 202, 264
272, 225, 863, 805, 990
273, 314, 853, 825, 862
274, 862, 970, 835, 995
275, 710, 815, 902, 935
276, 510, 832, 508, 963
277, 532, 1034, 538, 953
278, 945, 670, 869, 668
279, 832, 906, 815, 954
280, 594, 946, 803, 948
281, 805, 841, 807, 895
282, 221, 822, 296, 975
283, 869, 886, 800, 587
284, 926, 972, 903, 794
285, 182, 1030, 250, 280
286, 847, 462, 856, 461
287, 16, 421, 707, 801
288, 89, 940, 939, 955
289, 804, 917, 700, 976
290, 984, 808, 452, 851
291, 581, 829, 803, 911
292, 711, 934, 906, 936
293, 916, 956, 452, 808
294, 656, 473, 814, 886
295, 520, 928, 824, 951
296, 489, 865, 827, 958
297, 912, 1016, 1001, 231
298, 329, 845, 341, 884
299, 927, 968, 422, 982
300, 799, 882, 35, 930
301, 825, 395, 862, 853
302, 232, 904, 310, 1001
303, 823, 868, 567, 946
304, 337, 854, 797, 925
305, 82, 276, 111, 969
306, 705, 829, 876, 946
307, 537, 605, 526, 817
308, 52, 416, 202, 264
309, 807, 278, 185, 161
310, 395, 862, 853, 907
311, 185, 841, 224, 990
312, 559, 798, 555, 967
313, 309, 888, 943, 324
314, 824, 928, 657, 951
315, 214, 854, 839, 861
316, 71, 236, 399, 857
317, 728, 823, 617, 948
318, 857, 877, 399, 893
319, 823, 584, 567, 868
320, 247, 1016, 1001, 912
321, 807, 278, 161, 881
322, 111, 969, 348, 977
323, 1001, 1016, 1033, 231
324, 855, 798, 559, 967
325, 812, 804, 950, 990
326, 700, 913, 804, 976
327, 806, 925, 860, 968
328, 656, 814, 765, 886
329, 815, 901, 851, 934
330, 163, 797, 881, 279
331, 558, 842, 798, 992
332, 111, 276, 348, 969
333, 538, 771, 1021, 640
334, 3, 114, 848, 993
335, 798, 795, 867, 933
336, 268, 940, 83, 979
337, 807, 913, 887, 841
338, 254, 365, 394, 1041
339, 259, 910, 893, 943
340, 214, 854, 861, 177
341, 113, 82, 111, 969
342, 832, 827, 963, 986
343, 893, 910, 386, 857
344, 507, 827, 489, 865
345, 341, 826, 281, 884
346, 746, 857, 626, 877
347, 826, 845, 341, 1004
348, 232, 904, 1001, 139
349, 1018, 928, 612, 855
350, 12, 681, 428, 843
351, 837, 963, 827, 986
352, 932, 881, 920, 931
353, 919, 933, 552, 967
354, 941, 928, 820, 855
355, 799, 35, 869, 957
356, 805, 895, 225, 990
357, 571, 858, 929, 994
358, 797, 805, 890, 895
359, 885, 376, 804, 990
360, 35, 799, 930, 957
361, 860, 925, 797, 968
362, 799, 35, 882, 840
363, 176, 884, 843, 277
364, 901, 958, 811, 971
365, 594, 829, 791, 864
366, 941, 824, 463, 871
367, 807, 913, 841, 805
368, 881, 890, 797, 905
369, 794, 472, 903, 926
370, 742, 594, 791, 864
371, 430, 517, 930, 937
372, 1, 439, 638, 993
373, 807, 278, 881, 895
374, 165, 940, 88, 955
375, 982, 831, 18, 861
376, 354, 195, 860, 871
377, 875, 356, 850, 897
378, 244, 904, 955, 310
379, 804, 913, 950, 990
380, 103, 355, 834, 852
381, 541, 570, 811, 1003
382, 875, 356, 897, 187
383, 53, 1045, 1024, 210
384, 52, 66, 416, 213
385, 807, 913, 805, 890
386, 29, 871, 824, 1008
387, 348, 202, 111, 977
388, 799, 869, 35, 840
389, 646, 806, 595, 983
390, 624, 893, 857, 910
391, 570, 859, 1010, 542
392, 279, 797, 881, 895
393, 885, 376, 990, 298
394, 491, 587, 800, 886
395, 623, 732, 798, 992
396, 138, 1016, 234, 942
397, 365, 254, 308, 1041
398, 740, 848, 775, 965
399, 799, 856, 840, 882
400, 796, 814, 846, 869
401, 547, 855, 820, 928
402, 881, 890, 920, 807
403, 657, 928, 607, 951
404, 557, 555, 558, 919
405, 795, 820, 806, 891
406, 230, 898, 215, 962
407, 547, 548, 820, 967
408, 924, 976, 917, 804
409, 491, 800, 483, 903
410, 66, 52, 416, 202
411, 409, 192, 61, 1013
412, 163, 797, 279, 337
413, 806, 422, 927, 968
414, 515, 513, 514, 813
415, 621, 811, 441, 971
416, 572, 851, 901, 934
417, 823, 1034, 532, 953
418, 825, 938, 838, 975
419, 596, 815, 880, 954
420, 621, 441, 811, 1003
421, 473, 903, 886, 476
422, 459, 799, 465, 892
423, 263, 66, 416, 202
424, 795, 941, 959, 871
425, 318, 822, 296, 221
426, 798, 933, 919, 967
427, 547, 820, 546, 928
428, 869, 886, 587, 670
429, 250, 415, 1040, 149
430, 83, 940, 171, 979
431, 860, 195, 334, 925
432, 174, 144, 843, 853
433, 465, 799, 462, 846
434, 415, 265, 250, 1040
435, 871, 925, 1008, 195
436, 179, 416, 66, 213
437, 815, 591, 901, 934
438, 594, 720, 759, 803
439, 585, 880, 818, 1005
440, 807, 881, 161, 931
441, 707, 16, 801, 985
442, 660, 804, 700, 913
443, 499, 808, 999, 915
444, 980, 932, 881, 801
445, 825, 395, 853, 60
446, 778, 12, 428, 878
447, 740, 775, 419, 965
448, 815, 859, 741, 902
449, 920, 890, 905, 708
450, 984, 809, 818, 978
451, 741, 815, 596, 859
452, 441, 865, 811, 1003
453, 3, 114, 53, 888
454, 230, 1015, 898, 962
455, 893, 386, 910, 259
456, 571, 858, 837, 929
457, 457, 847, 459, 892
458, 823, 1034, 953, 685
459, 596, 880, 429, 954
460, 344, 378, 1020, 1039
461, 986, 541, 859, 827
462, 881, 932, 157, 159
463, 492, 448, 916, 971
464, 52, 416, 264, 213
465, 795, 849, 798, 867
466, 421, 16, 17, 801
467, 12, 878, 11, 853
468, 218, 1008, 874, 839
469, 443, 811, 444, 971
470, 311, 274, 821, 970
471, 826, 832, 512, 963
472, 823, 1034, 685, 868
473, 705, 829, 684, 876
474, 507, 571, 508, 827
475, 153, 850, 834, 947
476, 812, 950, 863, 990
477, 317, 819, 836, 989
478, 102, 343, 136, 1029
479, 1045, 379, 1024, 210
480, 633, 435, 712, 844
481, 708, 727, 890, 905
482, 444, 811, 958, 971
483, 499, 808, 915, 716
484, 225, 297, 805, 863
485, 876, 868, 1011, 639
486, 1039, 3, 993, 114
487, 939, 940, 377, 955
488, 831, 850, 154, 947
489, 567, 566, 823, 946
490, 706, 670, 634, 886
491, 986, 541, 827, 536
492, 884, 514, 650, 649
493, 300, 398, 874, 962
494, 35, 885, 882, 840
495, 585, 818, 937, 1005
496, 214, 874, 216, 962
497, 847, 462, 461, 459
498, 172, 306, 875, 914
499, 209, 140, 1048, 1032
500, 83, 243, 82, 979
501, 785, 900, 728, 948
502, 646, 891, 806, 983
503, 820, 824, 546, 928
504, 820, 855, 547, 967
505, 378, 1020, 1039, 993
506, 876, 868, 790, 1011
507, 821, 825, 274, 975
508, 186, 834, 190, 875
509, 86, 87, 84, 132
510, 336, 314, 273, 862
511, 670, 814, 706, 909
512, 746, 837, 782, 857
513, 174, 843, 838, 853
514, 522, 467, 900, 908
515, 546, 824, 820, 983
516, 791, 829, 579, 864
517, 492, 916, 802, 971
518, 863, 950, 805, 990
519, 422, 806, 646, 968
520, 150, 378, 344, 1039
521, 635, 517, 430, 937
522, 197, 834, 821, 947
523, 685, 823, 868, 584
524, 823, 584, 588, 568
525, 343, 346, 270, 1029
526, 509, 958, 832, 987
527, 829, 864, 803, 911
528, 782, 726, 857, 858
529, 968, 905, 637, 982
530, 716, 808, 915, 916
531, 281, 836, 826, 1000
532, 890, 887, 913, 597
533, 559, 623, 732, 798
534, 1005, 882, 810, 937
535, 462, 856, 475, 944
536, 802, 883, 696, 915
537, 219, 835, 199, 961
538, 882, 55, 804, 885
539, 881, 932, 159, 931
540, 375, 399, 877, 893
541, 23, 1050, 1025, 951
542, 810, 817, 693, 917
543, 795, 805, 863, 950
544, 1039, 3, 53, 378
545, 840, 899, 796, 945
546, 636, 958, 901, 971
547, 219, 833, 835, 961
548, 581, 829, 705, 946
549, 357, 841, 924, 990
550, 548, 933, 820, 967
551, 681, 843, 838, 973
552, 512, 832, 826, 906
553, 826, 521, 845, 963
554, 809, 799, 892, 957
555, 888, 390, 309, 943
556, 809, 892, 864, 957
557, 378, 150, 53, 1039
558, 259, 386, 260, 893
559, 701, 639, 1011, 868
560, 798, 941, 623, 992
561, 352, 169, 835, 939
562, 803, 908, 467, 456
563, 108, 110, 1044, 1036
564, 817, 887, 534, 976
565, 83, 86, 84, 171
566, 805, 795, 879, 950
567, 989, 807, 931, 887
568, 1036, 897, 306, 108
569, 519, 544, 520, 951
570, 853, 862, 314, 907
571, 882, 1005, 37, 937
572, 17, 831, 18, 905
573, 603, 819, 534, 973
574, 295, 932, 156, 947
575, 517, 809, 720, 864
576, 510, 509, 508, 832
577, 182, 1030, 280, 1047
578, 309, 888, 324, 210
579, 493, 802, 492, 916
580, 562, 816, 507, 865
581, 499, 495, 716, 915
582, 694, 562, 816, 994
583, 244, 904, 310, 232
584, 795, 860, 805, 879
585, 805, 860, 795, 863
586, 799, 809, 930, 957
587, 823, 705, 868, 946
588, 483, 800, 579, 829
589, 165, 377, 940, 955
590, 715, 783, 447, 956
591, 711, 906, 627, 936
592, 558, 798, 732, 992
593, 984, 808, 851, 828
594, 828, 999, 964, 504
595, 16, 17, 801, 896
596, 906, 934, 880, 936
597, 337, 797, 279, 925
598, 448, 447, 916, 971
599, 869, 886, 670, 814
600, 559, 558, 555, 798
601, 799, 869, 846, 926
602, 63, 995, 369, 385
603, 314, 825, 273, 862
604, 984, 808, 828, 908
605, 1037, 544, 607, 928
606, 860, 879, 806, 968
607, 806, 927, 595, 983
608, 744, 802, 883, 971
609, 710, 880, 815, 935
610, 444, 811, 865, 958
611, 812, 885, 804, 990
612, 920, 890, 708, 709
613, 411, 904, 310, 955
614, 855, 798, 967, 941
615, 71, 837, 191, 845
616, 174, 176, 838, 843
617, 817, 949, 836, 989
618, 639, 1011, 490, 530
619, 17, 397, 831, 896
620, 806, 860, 795, 879
621, 343, 417, 136, 1029
622, 571, 782, 837, 858
623, 265, 326, 1046, 1027
624, 981, 1023, 126, 914
625, 685, 823, 584, 588
626, 496, 883, 494, 915
627, 336, 314, 862, 907
628, 825, 395, 60, 63
629, 202, 264, 111, 977
630, 814, 870, 656, 909
631, 652, 848, 888, 974
632, 154, 271, 850, 898
633, 806, 824, 820, 871
634, 384, 835, 866, 939
635, 797, 860, 279, 925
636, 800, 799, 869, 957
637, 471, 814, 473, 926
638, 1039, 3, 114, 53
639, 795, 806, 879, 891
640, 65, 943, 220, 1009
641, 295, 197, 821, 947
642, 819, 822, 318, 838
643, 880, 906, 815, 934
644, 559, 732, 558, 798
645, 611, 1037, 607, 928
646, 839, 861, 854, 982
647, 190, 834, 353, 852
648, 780, 849, 992, 941
649, 979, 276, 969, 240
650, 744, 802, 971, 492
651, 803, 978, 911, 809
652, 242, 943, 893, 1009
653, 337, 291, 163, 854
654, 557, 554, 555, 919
655, 824, 871, 806, 1008
656, 802, 811, 901, 1010
657, 814, 909, 670, 945
658, 772, 1021, 687, 771
659, 388, 270, 1047, 1042
660, 579, 864, 800, 957
661, 594, 565, 946, 948
662, 738, 23, 1025, 951
663, 466, 462, 475, 944
664, 836, 949, 342, 989
665, 696, 883, 802, 1010
666, 670, 668, 587, 869
667, 176, 884, 277, 281
668, 1018, 928, 855, 550
669, 979, 276, 240, 243
670, 1005, 882, 373, 924
671, 365, 232, 310, 1001
672, 631, 745, 552, 933
673, 517, 635, 720, 809
674, 860, 863, 54, 959
675, 595, 806, 422, 927
676, 521, 826, 512, 963
677, 818, 847, 809, 937
678, 711, 815, 906, 934
679, 871, 925, 195, 860
680, 181, 845, 1002, 877
681, 314, 175, 825, 853
682, 802, 901, 811, 971
683, 459, 462, 465, 799
684, 560, 870, 842, 909
685, 566, 617, 823, 948
686, 860, 279, 333, 895
687, 87, 955, 92, 133
688, 30, 463, 29, 871
689, 720, 594, 742, 864
690, 720, 635, 602, 828
691, 695, 820, 891, 983
692, 423, 792, 838, 966
693, 884, 514, 649, 826
694, 244, 904, 232, 233
695, 215, 898, 861, 962
696, 187, 172, 306, 875
697, 132, 86, 87, 165
698, 429, 880, 813, 954
699, 592, 913, 976, 887
700, 890, 887, 597, 709
701, 706, 1012, 733, 909
702, 352, 835, 921, 939
703, 6, 893, 943, 1009
704, 317, 836, 342, 989
705, 108, 106, 115, 897
706, 796, 812, 944, 988
707, 795, 959, 941, 849
708, 799, 800, 892, 957
709, 200, 309, 220, 943
710, 293, 1038, 1031, 328
711, 339, 875, 850, 897
712, 916, 971, 956, 802
713, 785, 830, 900, 948
714, 744, 802, 492, 494
715, 631, 552, 919, 933
716, 494, 883, 802, 915
717, 581, 684, 705, 829
718, 882, 55, 885, 382
719, 837, 857, 302, 858
720, 116, 969, 111, 977
721, 796, 846, 814, 870
722, 339, 106, 875, 897
723, 863, 885, 812, 990
724, 1026, 76, 1038, 328
725, 293, 73, 1038, 328
726, 815, 851, 902, 935
727, 581, 705, 823, 946
728, 508, 837, 667, 963
729, 251, 244, 299, 955
730, 842, 849, 796, 919
731, 318, 822, 221, 838
732, 194, 55, 376, 804
733, 849, 867, 796, 919
734, 796, 846, 840, 869
735, 677, 1037, 610, 609
736, 321, 833, 835, 970
737, 795, 860, 806, 871
738, 707, 801, 421, 920
739, 774, 581, 803, 911
740, 833, 852, 98, 961
741, 647, 541, 923, 1003
742, 321, 833, 970, 99
743, 468, 846, 469, 996
744, 377, 955, 203, 939
745, 178, 831, 177, 861
746, 794, 472, 531, 903
747, 1031, 1038, 77, 328
748, 1020, 1, 378, 344
749, 525, 534, 526, 817
750, 89, 88, 940, 955
751, 646, 422, 595, 806
752, 832, 859, 815, 987
753, 911, 978, 456, 458
754, 815, 906, 880, 954
755, 1018, 928, 683, 1037
756, 649, 845, 884, 826
757, 132, 84, 86, 171
758, 16, 896, 801, 985
759, 768, 849, 899, 945
760, 820, 824, 806, 983
761, 840, 856, 846, 944
762, 302, 910, 858, 857
763, 617, 568, 566, 823
764, 1036, 362, 897, 1014
765, 799, 847, 809, 892
766, 1015, 897, 288, 898
767, 849, 32, 899, 959
768, 800, 926, 892, 972
769, 35, 885, 840, 34
770, 531, 794, 903, 972
771, 98, 833, 355, 852
772, 224, 841, 357, 990
773, 795, 806, 820, 871
774, 6, 893, 1009, 426
775, 796, 944, 867, 988
776, 696, 802, 902, 1010
777, 572, 901, 591, 934
778, 452, 851, 453, 984
779, 1034, 705, 868, 823
780, 860, 334, 195, 354
781, 444, 865, 489, 958
782, 158, 159, 157, 932
783, 104, 872, 852, 875
784, 485, 829, 594, 946
785, 587, 580, 491, 800
786, 321, 833, 99, 402
787, 214, 235, 218, 839
788, 463, 657, 824, 928
789, 797, 905, 890, 968
790, 812, 475, 856, 944
791, 753, 840, 35, 869
792, 429, 813, 40, 954
793, 402, 833, 98, 961
794, 487, 814, 471, 870
795, 974, 965, 848, 740
796, 566, 568, 567, 823
797, 649, 845, 826, 521
798, 341, 845, 329, 1004
799, 455, 467, 908, 456
800, 839, 927, 20, 982
801, 158, 157, 156, 932
802, 724, 621, 441, 971
803, 799, 846, 840, 856
804, 384, 835, 95, 866
805, 374, 862, 395, 907
806, 63, 995, 385, 825
807, 840, 882, 856, 885
808, 808, 851, 828, 964
809, 512, 826, 513, 906
810, 801, 905, 421, 920
811, 586, 696, 883, 915
812, 506, 828, 935, 964
813, 813, 906, 880, 936
814, 673, 843, 1002, 878
815, 394, 232, 365, 1001
816, 493, 802, 916, 915
817, 167, 843, 144, 878
818, 1012, 706, 482, 886
819, 875, 356, 187, 186
820, 493, 802, 915, 494
821, 825, 853, 838, 938
822, 843, 884, 662, 1002
823, 552, 554, 919, 967
824, 1020, 378, 1, 993
825, 834, 353, 833, 1006
826, 605, 693, 817, 917
827, 88, 165, 86, 940
828, 76, 77, 1038, 328
829, 548, 556, 820, 933
830, 329, 341, 277, 884
831, 153, 152, 834, 850
832, 1037, 544, 928, 683
833, 922, 452, 916, 451
834, 744, 802, 494, 883
835, 444, 958, 636, 971
836, 827, 865, 816, 923
837, 452, 453, 851, 956
838, 852, 872, 100, 873
839, 168, 408, 80, 276
840, 968, 637, 905, 727
841, 1003, 789, 883, 621
842, 949, 924, 989, 817
843, 375, 399, 236, 877
844, 137, 873, 866, 889
845, 695, 820, 556, 891
846, 911, 978, 458, 892
847, 181, 845, 877, 236
848, 258, 411, 310, 955
849, 621, 440, 441, 1003
850, 621, 883, 811, 971
851, 556, 891, 820, 933
852, 847, 930, 809, 937
853, 522, 908, 900, 922
854, 408, 285, 80, 276
855, 352, 169, 199, 835
856, 480, 886, 491, 903
857, 153, 154, 850, 947
858, 548, 556, 695, 820
859, 60, 853, 825, 938
860, 341, 281, 277, 884
861, 867, 891, 988, 577
862, 875, 356, 186, 850
863, 580, 579, 800, 957
864, 191, 845, 837, 1004
865, 73, 1026, 1038, 328
866, 169, 866, 835, 939
867, 809, 847, 799, 930
868, 86, 171, 83, 940
869, 895, 333, 297, 226
870, 461, 630, 856, 917
871, 911, 684, 829, 972
872, 104, 834, 103, 152
873, 852, 873, 98, 961
874, 951, 1035, 1025, 738
875, 219, 262, 199, 835
876, 541, 647, 570, 1003
877, 785, 728, 617, 948
878, 746, 782, 625, 857
879, 240, 348, 276, 969
880, 480, 483, 876, 903
881, 531, 682, 794, 972
882, 17, 421, 801, 905
883, 916, 452, 956, 450
884, 87, 955, 133, 165
885, 219, 833, 262, 835
886, 1005, 882, 924, 810
887, 725, 847, 810, 917
888, 853, 878, 11, 907
889, 684, 903, 829, 972
890, 803, 978, 809, 984
891, 827, 859, 832, 958
892, 825, 970, 862, 995
893, 821, 274, 825, 970
894, 867, 891, 577, 933
895, 981, 126, 1023, 122
896, 656, 476, 473, 886
897, 499, 808, 716, 922
898, 964, 999, 808, 915
899, 738, 1025, 781, 1035
900, 1018, 928, 1037, 612
901, 154, 178, 271, 898
902, 504, 830, 828, 999
903, 834, 833, 353, 852
904, 87, 955, 165, 88
905, 911, 684, 972, 679
906, 206, 1016, 942, 413
907, 104, 834, 152, 875
908, 384, 183, 835, 939
909, 300, 20, 874, 398
910, 581, 705, 532, 823
911, 887, 920, 931, 966
912, 851, 935, 828, 964
913, 244, 415, 251, 299
914, 13, 853, 60, 938
915, 807, 890, 805, 895
916, 797, 279, 860, 895
917, 823, 584, 568, 567
918, 205, 889, 894, 912
919, 95, 321, 402, 835
920, 570, 749, 811, 1003
921, 237, 854, 925, 839
922, 629, 11, 878, 907
923, 924, 989, 976, 841
924, 44, 837, 302, 858
925, 54, 860, 297, 863
926, 185, 224, 225, 990
927, 655, 815, 591, 901
928, 814, 796, 870, 945
929, 880, 906, 813, 954
930, 811, 883, 621, 1003
931, 83, 84, 243, 171
932, 571, 667, 508, 837
933, 220, 213, 65, 1009
934, 513, 512, 514, 826
935, 221, 825, 272, 175
936, 817, 836, 819, 989
937, 735, 849, 780, 941
938, 206, 1016, 413, 247
939, 808, 916, 716, 922
940, 1035, 781, 738, 737
941, 174, 176, 318, 838
942, 202, 52, 264, 977
943, 475, 812, 757, 944
944, 1019, 942, 412, 981
945, 765, 814, 656, 909
946, 768, 849, 666, 899
947, 441, 440, 865, 1003
948, 916, 956, 971, 447
949, 800, 903, 886, 926
950, 1029, 85, 1043, 102
951, 147, 866, 137, 873
952, 597, 709, 708, 890
953, 741, 710, 815, 902
954, 973, 317, 836, 281
955, 288, 230, 1015, 898
956, 735, 941, 871, 959
957, 423, 792, 681, 838
958, 13, 838, 853, 938
959, 886, 926, 869, 800
960, 1039, 150, 53, 1045
961, 837, 845, 746, 963
962, 486, 657, 607, 951
963, 125, 878, 853, 907
964, 417, 343, 270, 1029
965, 1029, 85, 346, 1043
966, 149, 1040, 250, 148
967, 758, 433, 431, 844
968, 1028, 85, 78, 101
969, 596, 815, 710, 880
970, 610, 1037, 677, 683
971, 263, 202, 264, 111
972, 483, 579, 791, 829
973, 485, 791, 594, 829
974, 502, 504, 505, 999
975, 666, 849, 32, 899
976, 676, 870, 560, 909
977, 533, 818, 847, 978
978, 808, 828, 830, 999
979, 311, 833, 99, 970
980, 86, 165, 171, 940
981, 546, 547, 548, 820
982, 827, 865, 811, 958
983, 804, 924, 841, 990
984, 603, 534, 525, 973
985, 318, 973, 317, 819
986, 238, 1015, 307, 898
987, 948, 908, 900, 803
988, 152, 850, 339, 875
989, 803, 823, 900, 948
990, 581, 467, 774, 803
991, 643, 848, 652, 974
992, 902, 935, 851, 964
993, 740, 419, 844, 965
994, 1013, 874, 962, 217
995, 165, 360, 377, 955
996, 467, 774, 803, 456
997, 749, 570, 811, 1010
998, 295, 197, 311, 821
999, 185, 184, 224, 841
1000, 3, 848, 114, 888
1001, 213, 264, 52, 1009
1002, 795, 950, 863, 988
1003, 92, 299, 133, 955
1004, 33, 863, 899, 959
1005, 852, 872, 166, 875
1006, 487, 656, 814, 870
1007, 799, 847, 856, 882
1008, 684, 829, 903, 876
1009, 1040, 1030, 250, 148
1010, 813, 817, 515, 936
1011, 749, 811, 883, 1010
1012, 819, 822, 838, 966
1013, 819, 822, 966, 931
1014, 867, 944, 658, 988
1015, 178, 861, 215, 898
1016, 309, 888, 210, 211
1017, 125, 144, 853, 878
1018, 738, 519, 23, 951
1019, 487, 473, 471, 814
1020, 696, 902, 802, 964
1021, 894, 412, 981, 170
1022, 863, 950, 812, 988
1023, 656, 765, 476, 886
1024, 218, 1008, 839, 59
1025, 344, 1039, 1020, 208
1026, 209, 74, 1048, 140
1027, 397, 831, 896, 850
1028, 365, 244, 310, 232
1029, 226, 185, 225, 895
1030, 918, 969, 117, 977
1031, 634, 670, 587, 886
1032, 33, 899, 32, 959
1033, 380, 193, 307, 962
1034, 295, 311, 274, 821
1035, 832, 859, 827, 986
1036, 394, 365, 327, 1001
1037, 206, 1016, 247, 912
1038, 888, 53, 324, 210
1039, 273, 314, 175, 825
1040, 65, 213, 52, 1009
1041, 520, 546, 824, 928
1042, 811, 859, 827, 958
1043, 832, 815, 906, 987
1044, 874, 951, 927, 1008
1045, 900, 908, 830, 922
1046, 264, 977, 52, 1009
1047, 924, 976, 804, 841
1048, 1003, 789, 621, 622
1049, 194, 882, 804, 924
1050, 507, 489, 488, 865
1051, 728, 588, 568, 823
1052, 795, 849, 899, 959
1053, 64, 938, 821, 985
1054, 749, 883, 811, 1003
1055, 894, 412, 170, 312
1056, 596, 710, 429, 880
1057, 534, 819, 661, 887
1058, 168, 80, 82, 276
1059, 389, 898, 307, 962
1060, 302, 837, 71, 857
1061, 696, 802, 915, 964
1062, 924, 976, 989, 817
1063, 693, 810, 725, 936
1064, 243, 83, 171, 979
1065, 269, 873, 872, 894
1066, 12, 11, 878, 778
1067, 237, 854, 839, 235
1068, 811, 865, 827, 923
1069, 457, 461, 459, 847
1070, 673, 843, 878, 428
1071, 336, 146, 314, 907
1072, 801, 920, 707, 985
1073, 236, 71, 191, 845
1074, 652, 888, 425, 974
1075, 567, 498, 566, 946
1076, 795, 899, 863, 959
1077, 369, 835, 262, 995
1078, 429, 39, 813, 880
1079, 498, 567, 868, 946
1080, 266, 924, 841, 989
1081, 798, 867, 849, 919
1082, 801, 831, 905, 980
1083, 17, 397, 18, 831
1084, 293, 75, 1031, 1038
1085, 715, 956, 447, 971
1086, 210, 1039, 208, 114
1087, 377, 203, 955, 360
1088, 512, 521, 649, 826
1089, 163, 797, 337, 854
1090, 842, 849, 680, 945
1091, 101, 1028, 85, 1043
1092, 475, 660, 812, 856
1093, 365, 244, 232, 246
1094, 488, 562, 507, 865
1095, 911, 684, 679, 581
1096, 798, 849, 842, 919
1097, 803, 828, 759, 948
1098, 673, 843, 428, 662
1099, 537, 817, 534, 976
1100, 831, 854, 177, 861
1101, 468, 469, 663, 996
1102, 887, 920, 966, 709
1103, 74, 76, 1048, 140
1104, 632, 892, 926, 972
1105, 792, 819, 603, 973
1106, 92, 149, 133, 299
1107, 626, 877, 857, 893
1108, 13, 838, 12, 853
1109, 632, 926, 794, 972
1110, 716, 915, 493, 916
1111, 100, 872, 269, 873
1112, 931, 932, 296, 822
1113, 53, 114, 210, 888
1114, 199, 835, 169, 866
1115, 285, 263, 80, 276
1116, 636, 901, 715, 971
1117, 252, 254, 394, 1041
1118, 841, 913, 887, 976
1119, 812, 950, 757, 988
1120, 837, 858, 44, 929
1121, 6, 893, 426, 624
1122, 274, 295, 821, 975
1123, 353, 852, 833, 961
1124, 542, 741, 596, 859
1125, 64, 821, 938, 995
1126, 964, 999, 915, 505
1127, 87, 955, 88, 92
1128, 725, 810, 693, 917
1129, 805, 950, 913, 990
1130, 86, 88, 87, 165
1131, 357, 841, 266, 924
1132, 731, 35, 930, 957
1133, 705, 876, 868, 946
1134, 221, 825, 175, 838
1135, 813, 949, 810, 1005
1136, 393, 353, 834, 1006
1137, 846, 870, 796, 996
1138, 811, 802, 883, 1010
1139, 18, 397, 189, 831
1140, 140, 322, 1048, 1032
1141, 629, 11, 778, 878
1142, 268, 86, 83, 940
1143, 547, 549, 548, 967
1144, 86, 132, 171, 165
1145, 180, 220, 65, 200
1146, 277, 329, 884, 1002
1147, 813, 817, 810, 949
1148, 267, 365, 310, 1001
1149, 429, 39, 40, 813
1150, 104, 872, 875, 105
1151, 174, 144, 167, 843
1152, 504, 830, 999, 503
1153, 214, 854, 177, 235
1154, 310, 904, 141, 1001
1155, 813, 949, 39, 1000
1156, 661, 603, 792, 819
1157, 480, 491, 483, 903
1158, 749, 645, 883, 1003
1159, 872, 873, 127, 894
1160, 974, 965, 740, 844
1161, 487, 656, 473, 814
1162, 859, 901, 811, 1010
1163, 658, 944, 867, 996
1164, 596, 764, 542, 859
1165, 111, 80, 263, 276
1166, 762, 639, 701, 868
1167, 381, 353, 190, 834
1168, 818, 978, 755, 984
1169, 796, 840, 812, 899
1170, 1044, 306, 108, 1036
1171, 768, 680, 849, 945
1172, 979, 276, 243, 82
1173, 419, 758, 844, 965
1174, 256, 130, 84, 132
1175, 259, 893, 242, 943
1176, 140, 67, 1048, 322
1177, 811, 883, 802, 971
1178, 444, 488, 489, 865
1179, 1033, 232, 1022, 1001
1180, 288, 229, 230, 898
1181, 868, 876, 582, 946
1182, 1027, 254, 1041, 308
1183, 295, 932, 821, 975
1184, 154, 177, 178, 831
1185, 95, 98, 873, 961
1186, 817, 819, 887, 989
1187, 163, 881, 854, 980
1188, 570, 859, 542, 541
1189, 657, 29, 463, 824
1190, 810, 949, 924, 1005
1191, 43, 837, 986, 1004
1192, 835, 866, 199, 961
1193, 253, 363, 1027, 326
1194, 693, 817, 810, 936
1195, 680, 849, 842, 992
1196, 571, 726, 782, 858
1197, 766, 951, 1008, 824
1198, 872, 914, 319, 981
1199, 180, 220, 200, 309
1200, 632, 892, 465, 926
1201, 238, 1015, 898, 897
1202, 766, 1008, 951, 28
1203, 229, 215, 230, 898
1204, 437, 865, 436, 997
1205, 281, 826, 69, 1000
1206, 237, 854, 235, 337
1207, 820, 941, 855, 967
1208, 29, 195, 871, 1008
1209, 363, 265, 1027, 326
1210, 774, 911, 803, 456
1211, 808, 908, 452, 922
1212, 288, 1014, 897, 1015
1213, 888, 324, 53, 4
1214, 710, 902, 573, 935
1215, 931, 296, 932, 160
1216, 758, 712, 844, 965
1217, 1003, 789, 622, 645
1218, 832, 958, 859, 987
1219, 264, 1009, 145, 977
1220, 941, 928, 855, 613
1221, 111, 202, 348, 276
1222, 656, 870, 676, 909
1223, 243, 84, 132, 171
1224, 504, 830, 503, 618
1225, 808, 908, 830, 828
1226, 801, 821, 947, 932
1227, 1003, 789, 645, 883
1228, 496, 883, 915, 586
1229, 735, 849, 941, 959
1230, 522, 900, 718, 922
1231, 911, 684, 581, 829
1232, 514, 650, 525, 836
1233, 894, 412, 312, 942
1234, 196, 862, 835, 921
1235, 95, 873, 866, 961
1236, 115, 292, 108, 897
1237, 117, 918, 907, 969
1238, 826, 832, 963, 1004
1239, 812, 840, 796, 944
1240, 946, 948, 566, 823
1241, 396, 863, 33, 959
1242, 63, 995, 825, 862
1243, 457, 458, 456, 978
1244, 256, 87, 131, 132
1245, 295, 156, 197, 947
1246, 813, 836, 817, 949
1247, 469, 846, 944, 996
1248, 28, 951, 874, 1008
1249, 370, 835, 369, 862
1250, 321, 833, 402, 835
1251, 1017, 544, 737, 1035
1252, 347, 938, 825, 995
1253, 569, 842, 558, 992
1254, 894, 412, 942, 981
1255, 653, 974, 858, 994
1256, 840, 812, 856, 944
1257, 674, 517, 720, 864
1258, 98, 852, 100, 873
1259, 864, 892, 800, 957
1260, 467, 528, 527, 900
1261, 526, 534, 537, 817
1262, 792, 661, 819, 966
1263, 268, 83, 82, 979
1264, 192, 239, 1013, 962
1265, 104, 872, 105, 100
1266, 121, 119, 122, 981
1267, 887, 920, 709, 890
1268, 664, 676, 870, 919
1269, 611, 1037, 928, 612
1270, 163, 854, 291, 980
1271, 847, 882, 799, 930
1272, 301, 826, 341, 1004
1273, 989, 807, 887, 841
1274, 380, 1015, 230, 962
1275, 301, 341, 329, 1004
1276, 1023, 981, 118, 914
1277, 262, 835, 833, 995
1278, 832, 826, 41, 1004
1279, 183, 921, 835, 939
1280, 1027, 1041, 246, 308
1281, 269, 894, 872, 981
1282, 946, 566, 948, 565
1283, 39, 949, 813, 1005
1284, 308, 363, 265, 1027
1285, 237, 854, 337, 925
1286, 887, 931, 920, 807
1287, 533, 847, 457, 978
1288, 822, 932, 296, 975
1289, 425, 888, 910, 974
1290, 43, 191, 837, 1004
1291, 627, 906, 813, 936
1292, 131, 182, 87, 256
1293, 541, 827, 536, 923
1294, 803, 946, 823, 948
1295, 59, 925, 1008, 839
1296, 384, 321, 95, 835
1297, 625, 626, 746, 857
1298, 32, 396, 33, 959
1299, 220, 943, 242, 1009
1300, 741, 710, 596, 815
1301, 905, 968, 797, 982
1302, 533, 755, 818, 978
1303, 814, 870, 909, 945
1304, 673, 843, 662, 1002
1305, 1033, 327, 1001, 1022
1306, 648, 718, 900, 922
1307, 311, 355, 99, 833
1308, 125, 878, 907, 918
1309, 92, 415, 251, 250
1310, 602, 506, 504, 828
1311, 181, 845, 236, 329
1312, 890, 913, 805, 950
1313, 462, 461, 630, 856
1314, 580, 579, 491, 800
1315, 256, 84, 87, 132
1316, 629, 907, 878, 918
1317, 365, 244, 246, 308
1318, 546, 698, 520, 824
1319, 941, 928, 613, 463
1320, 874, 927, 839, 1008
1321, 40, 954, 813, 1000
1322, 174, 838, 175, 853
1323, 89, 939, 90, 955
1324, 546, 698, 824, 983
1325, 888, 5, 425, 910
1326, 966, 938, 985, 822
1327, 1019, 387, 286, 121
1328, 616, 753, 35, 869
1329, 731, 730, 35, 957
1330, 288, 1014, 1015, 290
1331, 65, 6, 943, 1009
1332, 711, 906, 815, 987
1333, 441, 443, 865, 442
1334, 1044, 306, 1036, 383
1335, 577, 578, 891, 988
1336, 369, 370, 352, 835
1337, 811, 901, 859, 958
1338, 757, 944, 812, 988
1339, 189, 257, 227, 850
1340, 651, 662, 884, 1002
1341, 223, 872, 852, 873
1342, 801, 821, 932, 985
1343, 803, 978, 984, 456
1344, 616, 869, 35, 957
1345, 218, 1008, 59, 28
1346, 13, 681, 12, 838
1347, 627, 813, 515, 936
1348, 65, 67, 179, 180
1349, 82, 81, 80, 168
1350, 1019, 942, 286, 387
1351, 124, 918, 117, 977
1352, 689, 998, 432, 816
1353, 43, 191, 71, 837
1354, 284, 205, 889, 894
1355, 90, 955, 939, 991
1356, 834, 896, 821, 947
1357, 402, 98, 95, 961
1358, 365, 244, 308, 310
1359, 389, 898, 962, 861
1360, 606, 486, 607, 951
1361, 541, 536, 721, 923
1362, 552, 554, 631, 919
1363, 717, 787, 644, 922
1364, 711, 591, 815, 934
1365, 620, 867, 658, 988
1366, 1027, 1041, 253, 246
1367, 105, 872, 875, 914
1368, 277, 884, 843, 1002
1369, 579, 483, 491, 800
1370, 949, 989, 924, 266
1371, 829, 903, 800, 972
1372, 592, 913, 887, 597
1373, 202, 348, 331, 977
1374, 578, 879, 891, 988
1375, 33, 885, 899, 863
1376, 264, 145, 1009, 367
1377, 66, 52, 65, 213
1378, 525, 836, 650, 973
1379, 860, 279, 925, 334
1380, 757, 475, 660, 812
1381, 998, 923, 929, 816
1382, 510, 512, 832, 963
1383, 998, 923, 816, 689
1384, 448, 446, 447, 971
1385, 813, 880, 39, 1005
1386, 603, 661, 534, 819
1387, 734, 604, 844, 965
1388, 833, 970, 821, 995
1389, 192, 193, 239, 962
1390, 422, 20, 927, 982
1391, 809, 847, 818, 978
1392, 230, 1015, 289, 288
1393, 484, 876, 829, 946
1394, 856, 882, 847, 917
1395, 232, 394, 365, 246
1396, 826, 963, 845, 1004
1397, 260, 242, 259, 893
1398, 741, 859, 1010, 902
1399, 735, 871, 31, 959
1400, 986, 541, 536, 418
1401, 180, 179, 65, 213
1402, 66, 65, 179, 213
1403, 711, 815, 655, 987
1404, 802, 808, 964, 956
1405, 273, 862, 825, 970
1406, 312, 349, 170, 894
1407, 92, 415, 250, 149
1408, 1011, 701, 530, 639
1409, 802, 808, 956, 916
1410, 844, 974, 643, 994
1411, 770, 1021, 953, 538
1412, 635, 506, 828, 935
1413, 722, 883, 696, 1010
1414, 59, 925, 839, 237
1415, 19, 18, 58, 982
1416, 132, 130, 84, 243
1417, 276, 82, 168, 243
1418, 282, 1016, 231, 1033
1419, 611, 1037, 612, 609
1420, 138, 1016, 942, 912
1421, 793, 727, 637, 968
1422, 998, 923, 689, 690
1423, 437, 642, 438, 865
1424, 572, 901, 851, 956
1425, 4, 3, 53, 888
1426, 310, 141, 267, 1001
1427, 600, 879, 890, 968
1428, 804, 812, 856, 885
1429, 689, 998, 690, 427
1430, 504, 830, 618, 828
1431, 857, 858, 726, 910
1432, 269, 284, 873, 894
1433, 866, 873, 94, 889
1434, 835, 862, 370, 921
1435, 542, 418, 541, 859
1436, 445, 444, 636, 971
1437, 469, 846, 466, 944
1438, 825, 938, 821, 995
1439, 266, 56, 924, 949
1440, 583, 701, 790, 868
1441, 118, 319, 914, 981
1442, 873, 889, 134, 894
1443, 1042, 1029, 129, 136
1444, 448, 492, 446, 971
1445, 866, 939, 169, 991
1446, 284, 889, 873, 894
1447, 528, 581, 532, 823
1448, 513, 813, 627, 906
1449, 1048, 76, 68, 140
1450, 986, 541, 418, 859
1451, 134, 873, 137, 889
1452, 407, 955, 904, 991
1453, 562, 488, 642, 865
1454, 464, 735, 31, 959
1455, 810, 847, 818, 937
1456, 643, 652, 425, 974
1457, 490, 1011, 639, 876
1458, 460, 874, 951, 927
1459, 623, 855, 613, 941
1460, 685, 823, 588, 953
1461, 838, 938, 822, 975
1462, 126, 1023, 122, 391
1463, 684, 682, 531, 972
1464, 302, 910, 857, 386
1465, 432, 427, 431, 998
1466, 879, 890, 805, 950
1467, 854, 905, 831, 980
1468, 401, 835, 196, 862
1469, 509, 832, 511, 987
1470, 658, 867, 675, 996
1471, 1034, 705, 823, 532
1472, 653, 643, 974, 994
1473, 47, 848, 740, 974
1474, 832, 41, 826, 954
1475, 882, 37, 1005, 373
1476, 835, 862, 401, 970
1477, 497, 915, 499, 999
1478, 460, 824, 927, 951
1479, 485, 594, 565, 946
1480, 193, 192, 57, 962
1481, 1015, 304, 307, 289
1482, 182, 92, 250, 149
1483, 56, 924, 949, 1005
1484, 349, 894, 269, 981
1485, 62, 969, 918, 977
1486, 134, 147, 137, 873
1487, 471, 473, 472, 926
1488, 666, 768, 680, 849
1489, 1002, 845, 329, 884
1490, 570, 647, 749, 1003
1491, 528, 900, 823, 953
1492, 421, 905, 708, 920
1493, 545, 547, 546, 928
1494, 627, 513, 515, 813
1495, 757, 812, 660, 950
1496, 1036, 362, 1014, 305
1497, 266, 357, 224, 841
1498, 1006, 985, 64, 821
1499, 381, 896, 834, 850
1500, 764, 418, 542, 859
1501, 691, 623, 559, 855
1502, 425, 858, 910, 726
1503, 570, 859, 541, 811
1504, 810, 936, 813, 1005
1505, 989, 807, 841, 184
1506, 752, 1002, 877, 1007
1507, 47, 775, 740, 848
1508, 741, 1010, 859, 542
1509, 33, 885, 863, 298
1510, 802, 808, 916, 915
1511, 1005, 373, 56, 924
1512, 769, 460, 698, 927
1513, 533, 755, 654, 818
1514, 68, 67, 1048, 140
1515, 850, 897, 356, 898
1516, 705, 639, 868, 876
1517, 98, 355, 103, 852
1518, 352, 835, 370, 921
1519, 214, 854, 235, 839
1520, 54, 863, 396, 959
1521, 71, 302, 44, 837
1522, 165, 133, 299, 955
1523, 711, 591, 655, 815
1524, 437, 438, 436, 865
1525, 210, 114, 211, 888
1526, 460, 824, 698, 927
1527, 313, 410, 239, 962
1528, 655, 591, 572, 901
1529, 881, 905, 801, 920
1530, 830, 540, 501, 589
1531, 689, 998, 427, 432
1532, 250, 182, 149, 148
1533, 966, 985, 938, 14
1534, 478, 876, 903, 480
1535, 511, 832, 512, 906
1536, 202, 331, 52, 977
1537, 359, 210, 406, 309
1538, 573, 935, 902, 964
1539, 810, 817, 813, 936
1540, 381, 393, 353, 834
1541, 138, 894, 912, 942
1542, 14, 938, 64, 985
1543, 41, 826, 954, 69
1544, 734, 633, 712, 844
1545, 478, 876, 480, 479
1546, 806, 891, 820, 983
1547, 205, 97, 889, 912
1548, 42, 764, 832, 986
1549, 1006, 985, 821, 896
1550, 651, 845, 746, 877
1551, 840, 846, 796, 944
1552, 13, 12, 60, 853
1553, 63, 385, 60, 825
1554, 41, 832, 1004, 42
1555, 493, 802, 494, 492
1556, 836, 949, 813, 1000
1557, 65, 220, 180, 213
1558, 419, 431, 740, 844
1559, 593, 913, 700, 976
1560, 998, 923, 690, 929
1561, 33, 885, 298, 34
1562, 766, 29, 657, 824
1563, 536, 923, 827, 929
1564, 598, 656, 676, 909
1565, 96, 100, 269, 873
1566, 928, 550, 547, 855
1567, 451, 450, 452, 916
1568, 589, 900, 830, 922
1569, 1002, 845, 884, 651
1570, 284, 94, 873, 889
1571, 964, 902, 956, 851
1572, 230, 962, 239, 380
1573, 116, 117, 969, 977
1574, 385, 347, 825, 995
1575, 873, 852, 392, 961
1576, 169, 137, 866, 991
1577, 588, 773, 685, 953
1578, 441, 443, 724, 971
1579, 502, 915, 497, 999
1580, 734, 844, 712, 965
1581, 964, 956, 902, 802
1582, 285, 80, 207, 408
1583, 364, 910, 888, 974
1584, 190, 852, 166, 875
1585, 699, 823, 728, 900
1586, 250, 325, 1030, 1040
1587, 64, 938, 347, 995
1588, 569, 558, 732, 992
1589, 274, 825, 970, 273
1590, 851, 815, 934, 935
1591, 966, 985, 14, 723
1592, 213, 367, 264, 1009
1593, 697, 704, 503, 830
1594, 654, 818, 755, 984
1595, 599, 890, 879, 950
1596, 105, 875, 106, 914
1597, 283, 234, 1016, 942
1598, 340, 407, 904, 991
1599, 939, 955, 203, 991
1600, 821, 970, 825, 995
1601, 131, 87, 182, 133
1602, 866, 873, 147, 961
1603, 928, 547, 550, 545
1604, 761, 843, 681, 973
1605, 664, 557, 676, 919
1606, 1006, 985, 896, 330
1607, 133, 131, 87, 132
1608, 801, 896, 831, 947
1609, 338, 877, 952, 893
1610, 860, 279, 334, 333
1611, 817, 924, 810, 949
1612, 431, 419, 758, 844
1613, 26, 25, 332, 951
1614, 402, 355, 98, 833
1615, 166, 852, 223, 872
1616, 170, 894, 349, 981
1617, 235, 237, 59, 839
1618, 466, 469, 468, 846
1619, 835, 970, 833, 995
1620, 877, 1002, 261, 1007
1621, 522, 455, 467, 908
1622, 489, 507, 508, 827
1623, 317, 198, 819, 989
1624, 374, 63, 395, 862
1625, 33, 666, 32, 899
1626, 840, 846, 799, 869
1627, 66, 65, 67, 179
1628, 594, 763, 565, 948
1629, 301, 69, 341, 826
1630, 782, 746, 667, 837
1631, 813, 906, 826, 954
1632, 339, 115, 106, 897
1633, 353, 833, 219, 961
1634, 335, 248, 1047, 388
1635, 484, 829, 485, 946
1636, 281, 69, 826, 341
1637, 271, 897, 850, 898
1638, 948, 908, 803, 828
1639, 499, 497, 495, 915
1640, 473, 903, 476, 474
1641, 802, 808, 915, 964
1642, 830, 540, 589, 922
1643, 1018, 683, 677, 1037
1644, 335, 1047, 248, 148
1645, 425, 653, 643, 974
1646, 364, 910, 974, 72
1647, 658, 944, 757, 988
1648, 601, 842, 680, 945
1649, 195, 371, 925, 1008
1650, 810, 818, 936, 1005
1651, 622, 645, 702, 1003
1652, 953, 1021, 685, 1034
1653, 84, 81, 130, 256
1654, 325, 250, 265, 1040
1655, 319, 872, 105, 914
1656, 689, 816, 432, 997
1657, 294, 833, 353, 1006
1658, 1006, 985, 330, 64
1659, 104, 872, 100, 852
1660, 177, 854, 831, 980
1661, 33, 885, 34, 899
1662, 219, 353, 294, 833
1663, 298, 863, 225, 990
1664, 851, 901, 815, 902
1665, 577, 620, 578, 988
1666, 600, 890, 727, 968
1667, 318, 819, 198, 931
1668, 768, 899, 420, 945
1669, 271, 404, 897, 898
1670, 684, 531, 903, 972
1671, 1018, 683, 928, 550
1672, 493, 492, 448, 916
1673, 96, 98, 100, 873
1674, 480, 478, 886, 903
1675, 725, 533, 756, 936
1676, 263, 416, 66, 179
1677, 923, 536, 690, 929
1678, 725, 693, 605, 917
1679, 95, 94, 866, 873
1680, 173, 412, 120, 1019
1681, 103, 355, 197, 834
1682, 324, 5, 888, 943
1683, 810, 937, 818, 1005
1684, 168, 82, 81, 243
1685, 585, 590, 880, 1005
1686, 1002, 845, 651, 877
1687, 1014, 238, 897, 1015
1688, 857, 426, 626, 893
1689, 26, 606, 25, 951
1690, 808, 956, 851, 964
1691, 979, 276, 82, 969
1692, 114, 848, 303, 888
1693, 633, 734, 604, 844
1694, 599, 913, 890, 950
1695, 87, 133, 132, 165
1696, 600, 879, 968, 688
1697, 857, 626, 426, 625
1698, 564, 965, 754, 993
1699, 244, 308, 251, 320
1700, 196, 835, 183, 921
1701, 310, 308, 251, 244
1702, 618, 503, 704, 830
1703, 139, 889, 904, 912
1704, 646, 578, 879, 891
1705, 29, 195, 30, 871
1706, 103, 104, 100, 852
1707, 423, 938, 14, 966
1708, 680, 842, 615, 992
1709, 522, 467, 527, 900
1710, 744, 883, 621, 971
1711, 662, 884, 843, 973
1712, 574, 560, 842, 909
1713, 927, 951, 824, 1008
1714, 274, 825, 273, 272
1715, 489, 827, 508, 958
1716, 914, 1044, 1023, 201
1717, 856, 882, 804, 885
1718, 520, 824, 460, 951
1719, 452, 450, 453, 956
1720, 152, 103, 153, 834
1721, 149, 182, 92, 133
1722, 41, 826, 69, 301
1723, 663, 487, 471, 870
1724, 716, 916, 644, 922
1725, 646, 879, 688, 968
1726, 134, 889, 135, 894
1727, 624, 857, 726, 910
1728, 352, 921, 241, 939
1729, 34, 885, 840, 899
1730, 396, 54, 297, 863
1731, 117, 918, 125, 907
1732, 730, 616, 35, 957
1733, 461, 847, 725, 917
1734, 131, 1042, 335, 1047
1735, 826, 906, 832, 954
1736, 936, 533, 654, 818
1737, 227, 850, 356, 898
1738, 154, 155, 831, 947
1739, 460, 874, 927, 21
1740, 124, 117, 116, 977
1741, 1019, 121, 286, 981
1742, 54, 333, 297, 860
1743, 127, 873, 134, 894
1744, 974, 965, 844, 643
1745, 692, 855, 559, 967
1746, 389, 898, 861, 228
1747, 636, 715, 445, 971
1748, 825, 821, 938, 975
1749, 354, 871, 860, 959
1750, 463, 871, 735, 941
1751, 796, 870, 842, 919
1752, 644, 916, 451, 922
1753, 34, 840, 753, 899
1754, 577, 867, 620, 988
1755, 535, 920, 723, 985
1756, 32, 849, 464, 959
1757, 625, 782, 726, 857
1758, 923, 690, 536, 721
1759, 966, 985, 723, 920
1760, 104, 152, 339, 875
1761, 175, 272, 273, 825
1762, 658, 620, 675, 867
1763, 642, 816, 437, 659
1764, 708, 727, 600, 890
1765, 830, 540, 922, 999
1766, 389, 300, 861, 962
1767, 153, 154, 152, 850
1768, 138, 1016, 912, 231
1769, 761, 662, 843, 973
1770, 854, 881, 797, 905
1771, 812, 840, 885, 899
1772, 810, 847, 882, 917
1773, 796, 849, 842, 945
1774, 369, 262, 385, 995
1775, 337, 235, 291, 854
1776, 218, 1008, 28, 874
1777, 834, 896, 393, 1006
1778, 571, 782, 667, 837
1779, 724, 744, 621, 971
1780, 164, 296, 932, 975
1781, 282, 1016, 358, 283
1782, 510, 512, 511, 832
1783, 127, 872, 223, 873
1784, 589, 648, 900, 922
1785, 465, 462, 466, 846
1786, 109, 1023, 118, 914
1787, 602, 635, 506, 828
1788, 984, 803, 456, 908
1789, 10, 907, 918, 969
1790, 74, 76, 75, 1026
1791, 454, 456, 908, 984
1792, 667, 837, 746, 963
1793, 173, 1019, 942, 412
1794, 42, 418, 764, 986
1795, 210, 359, 324, 309
1796, 131, 1042, 1047, 270
1797, 503, 697, 830, 999
1798, 842, 849, 798, 992
1799, 164, 932, 295, 975
1800, 447, 956, 450, 916
1801, 487, 676, 656, 870
1802, 1018, 786, 550, 855
1803, 699, 588, 728, 823
1804, 374, 862, 907, 960
1805, 130, 81, 84, 243
1806, 159, 161, 881, 931
1807, 460, 769, 21, 927
1808, 881, 905, 854, 980
1809, 251, 415, 244, 320
1810, 901, 902, 851, 956
1811, 131, 1047, 335, 148
1812, 804, 882, 917, 924
1813, 810, 917, 882, 924
1814, 1036, 305, 110, 383
1815, 812, 885, 863, 899
1816, 325, 265, 326, 1046
1817, 577, 745, 867, 933
1818, 754, 965, 619, 993
1819, 720, 742, 674, 864
1820, 135, 894, 889, 912
1821, 839, 874, 20, 927
1822, 619, 419, 775, 965
1823, 173, 942, 1019, 387
1824, 64, 821, 995, 1006
1825, 65, 7, 6, 1009
1826, 111, 82, 80, 276
1827, 266, 342, 56, 949
1828, 528, 823, 532, 953
1829, 661, 887, 819, 966
1830, 619, 848, 48, 993
1831, 838, 938, 423, 966
1832, 901, 902, 802, 1010
1833, 872, 894, 127, 981
1834, 1036, 305, 383, 306
1835, 428, 681, 761, 843
1836, 840, 856, 812, 885
1837, 575, 574, 842, 909
1838, 385, 347, 60, 825
1839, 477, 876, 714, 903
1840, 784, 4, 5, 888
1841, 168, 130, 79, 112
1842, 649, 845, 521, 651
1843, 215, 861, 214, 962
1844, 752, 1002, 1007, 673
1845, 894, 942, 128, 981
1846, 827, 929, 837, 986
1847, 44, 302, 45, 858
1848, 302, 71, 399, 857
1849, 41, 832, 42, 764
1850, 849, 941, 798, 992
1851, 348, 969, 62, 977
1852, 792, 603, 681, 973
1853, 60, 825, 347, 938
1854, 210, 1039, 114, 53
1855, 819, 198, 931, 989
1856, 830, 540, 999, 501
1857, 512, 649, 514, 826
1858, 118, 319, 107, 914
1859, 484, 483, 829, 876
1860, 139, 889, 912, 135
1861, 880, 934, 815, 935
1862, 759, 720, 602, 828
1863, 655, 815, 901, 987
1864, 269, 872, 319, 981
1865, 822, 931, 920, 966
1866, 651, 673, 662, 1002
1867, 726, 624, 625, 857
1868, 1036, 897, 108, 292
1869, 689, 923, 816, 997
1870, 143, 878, 125, 918
1871, 625, 624, 426, 857
1872, 324, 5, 4, 888
1873, 221, 175, 174, 838
1874, 232, 249, 1022, 246
1875, 29, 824, 766, 1008
1876, 698, 460, 520, 824
1877, 161, 162, 184, 931
1878, 174, 175, 144, 853
1879, 921, 939, 89, 940
1880, 361, 862, 196, 921
1881, 420, 34, 753, 899
1882, 199, 866, 147, 961
1883, 457, 533, 461, 847
1884, 117, 125, 918, 124
1885, 842, 870, 796, 945
1886, 801, 947, 831, 980
1887, 48, 303, 114, 848
1888, 32, 666, 464, 849
1889, 827, 923, 816, 929
1890, 338, 877, 893, 375
1891, 178, 215, 229, 898
1892, 59, 218, 235, 839
1893, 796, 899, 849, 945
1894, 442, 488, 444, 865
1895, 233, 299, 244, 955
1896, 45, 44, 858, 929
1897, 265, 250, 251, 415
1898, 1026, 1048, 74, 76
1899, 274, 825, 272, 975
1900, 141, 904, 912, 1001
1901, 601, 842, 945, 909
1902, 1044, 108, 306, 914
1903, 163, 291, 414, 980
1904, 873, 392, 852, 223
1905, 126, 914, 872, 981
1906, 440, 997, 865, 1003
1907, 321, 835, 401, 970
1908, 48, 848, 114, 993
1909, 1017, 737, 544, 788
1910, 422, 19, 20, 982
1911, 369, 199, 262, 835
1912, 596, 429, 40, 954
1913, 284, 205, 97, 889
1914, 96, 269, 284, 873
1915, 866, 91, 939, 991
1916, 888, 910, 323, 943
1917, 1026, 1048, 70, 74
1918, 139, 889, 135, 340
1919, 242, 213, 220, 1009
1920, 752, 1002, 673, 651
1921, 727, 708, 750, 905
1922, 795, 863, 860, 959
1923, 1044, 109, 108, 914
1924, 938, 975, 821, 985
1925, 8, 977, 952, 1009
1926, 137, 889, 866, 991
1927, 395, 853, 11, 907
1928, 160, 296, 162, 931
1929, 182, 87, 92, 133
1930, 592, 913, 597, 593
1931, 43, 929, 986, 837
1932, 801, 821, 985, 896
1933, 801, 821, 896, 947
1934, 529, 528, 532, 953
1935, 1035, 951, 607, 544
1936, 198, 318, 317, 819
1937, 654, 818, 934, 936
1938, 1035, 737, 1017, 608
1939, 582, 583, 790, 868
1940, 3, 652, 848, 888
1941, 569, 560, 558, 842
1942, 879, 950, 795, 988
1943, 68, 76, 1026, 328
1944, 896, 381, 397, 850
1945, 473, 903, 474, 472
1946, 349, 269, 319, 981
1947, 618, 830, 704, 948
1948, 10, 918, 62, 969
1949, 148, 182, 149, 133
1950, 795, 891, 879, 988
1951, 264, 116, 111, 977
1952, 903, 476, 478, 886
1953, 392, 147, 873, 961
1954, 903, 478, 476, 477
1955, 560, 569, 574, 842
1956, 586, 696, 722, 883
1957, 425, 858, 726, 653
1958, 384, 866, 91, 939
1959, 217, 874, 27, 951
1960, 288, 1014, 290, 292
1961, 328, 405, 77, 285
1962, 8, 52, 977, 1009
1963, 205, 912, 894, 942
1964, 536, 929, 827, 986
1965, 166, 875, 872, 914
1966, 952, 977, 145, 1009
1967, 499, 808, 922, 999
1968, 35, 882, 36, 930
1969, 703, 855, 692, 967
1970, 271, 339, 850, 897
1971, 5, 910, 888, 943
1972, 400, 342, 836, 949
1973, 41, 826, 301, 1004
1974, 488, 442, 642, 865
1975, 88, 89, 90, 955
1976, 203, 169, 939, 991
1977, 200, 222, 180, 309
1978, 640, 1034, 538, 543
1979, 214, 215, 178, 861
1980, 607, 1035, 1017, 608
1981, 845, 963, 837, 1004
1982, 1050, 25, 332, 1049
1983, 326, 320, 1046, 1027
1984, 325, 1040, 265, 1046
1985, 786, 692, 703, 855
1986, 1005, 56, 373, 38
1987, 846, 869, 814, 926
1988, 219, 294, 262, 833
1989, 768, 666, 420, 899
1990, 130, 131, 256, 129
1991, 354, 860, 54, 959
1992, 1034, 1021, 685, 640
1993, 716, 493, 915, 495
1994, 611, 463, 613, 928
1995, 566, 779, 617, 948
1996, 303, 848, 364, 888
1997, 83, 84, 81, 243
1998, 228, 861, 58, 898
1999, 389, 898, 228, 307
2000, 765, 656, 598, 909
2001, 131, 130, 256, 132
2002, 200, 324, 359, 309
2003, 321, 196, 401, 835
2004, 932, 920, 881, 801
2005, 505, 504, 506, 964
2006, 822, 932, 920, 931
2007, 441, 438, 442, 865
2008, 615, 680, 575, 842
2009, 35, 885, 34, 382
2010, 577, 745, 675, 867
2011, 821, 896, 834, 1006
2012, 780, 849, 464, 680
2013, 669, 877, 893, 952
2014, 433, 435, 434, 997
2015, 801, 932, 920, 985
2016, 822, 920, 932, 985
2017, 369, 352, 199, 835
2018, 490, 477, 479, 876
2019, 94, 96, 284, 873
2020, 359, 324, 53, 210
2021, 806, 925, 839, 1008
2022, 319, 105, 107, 914
2023, 848, 364, 888, 974
2024, 95, 98, 96, 873
2025, 273, 401, 862, 970
2026, 438, 642, 442, 865
2027, 407, 203, 955, 991
2028, 188, 960, 921, 979
2029, 59, 925, 237, 371
2030, 257, 356, 227, 850
2031, 669, 877, 952, 1007
2032, 265, 415, 320, 1046
2033, 802, 902, 901, 956
2034, 540, 499, 716, 922
2035, 177, 831, 155, 980
2036, 846, 796, 944, 996
2037, 877, 261, 952, 1007
2038, 415, 265, 1040, 1046
2039, 743, 701, 583, 868
2040, 612, 678, 1018, 855
2041, 232, 904, 139, 233
2042, 649, 845, 651, 884
2043, 125, 143, 144, 878
2044, 632, 465, 470, 926
2045, 865, 923, 811, 1003
2046, 615, 842, 569, 992
2047, 520, 545, 546, 928
2048, 465, 846, 468, 926
2049, 279, 881, 278, 895
2050, 159, 161, 278, 881
2051, 13, 423, 681, 838
2052, 247, 1016, 413, 358
2053, 288, 1014, 292, 897
2054, 709, 723, 920, 966
2055, 756, 693, 725, 936
2056, 540, 499, 922, 999
2057, 527, 900, 528, 953
2058, 699, 823, 900, 953
2059, 582, 498, 751, 868
2060, 62, 918, 9, 977
2061, 139, 889, 340, 904
2062, 138, 894, 942, 128
2063, 224, 357, 376, 990
2064, 428, 761, 662, 843
2065, 804, 913, 841, 976
2066, 803, 978, 456, 911
2067, 518, 1035, 608, 737
2068, 183, 321, 384, 835
2069, 1049, 24, 1025, 25
2070, 160, 164, 296, 932
2071, 262, 833, 294, 995
2072, 433, 434, 432, 997
2073, 984, 803, 908, 828
2074, 261, 877, 181, 1002
2075, 373, 38, 37, 1005
2076, 490, 1011, 479, 530
2077, 143, 261, 1002, 1007
2078, 359, 222, 200, 309
2079, 953, 685, 1021, 773
2080, 141, 912, 142, 1001
2081, 484, 582, 876, 946
2082, 66, 263, 285, 202
2083, 774, 679, 581, 911
2084, 317, 342, 198, 989
2085, 1036, 362, 305, 306
2086, 801, 905, 881, 980
2087, 650, 884, 662, 973
2088, 405, 80, 77, 285
2089, 214, 216, 874, 218
2090, 676, 560, 598, 909
2091, 699, 588, 823, 953
2092, 914, 1023, 1044, 109
2093, 606, 1025, 951, 1035
2094, 120, 1019, 412, 981
2095, 59, 925, 371, 1008
2096, 966, 985, 920, 822
2097, 257, 186, 356, 850
2098, 806, 839, 927, 1008
2099, 750, 637, 727, 905
2100, 66, 263, 179, 405
2101, 498, 868, 582, 946
2102, 918, 952, 261, 1007
2103, 298, 885, 863, 990
2104, 809, 935, 828, 984
2105, 154, 155, 177, 831
2106, 306, 362, 187, 897
2107, 619, 848, 993, 965
2108, 43, 929, 837, 44
2109, 440, 436, 865, 997
2110, 807, 920, 881, 931
2111, 340, 904, 889, 991
2112, 402, 99, 355, 833
2113, 608, 1035, 518, 606
2114, 221, 174, 318, 838
2115, 697, 501, 830, 999
2116, 454, 908, 452, 984
2117, 105, 104, 106, 875
2118, 274, 164, 295, 975
2119, 793, 600, 727, 968
2120, 620, 658, 757, 988
2121, 578, 736, 879, 988
2122, 120, 121, 1019, 981
2123, 790, 481, 582, 876
2124, 787, 716, 644, 922
2125, 189, 831, 397, 850
2126, 268, 366, 86, 940
2127, 285, 207, 80, 77
2128, 340, 889, 137, 991
2129, 295, 158, 156, 932
2130, 183, 89, 921, 939
2131, 1033, 247, 1016, 1001
2132, 833, 294, 995, 1006
2133, 169, 203, 137, 991
2134, 475, 630, 660, 856
2135, 483, 485, 484, 829
2136, 281, 400, 836, 1000
2137, 251, 265, 415, 320
2138, 125, 853, 314, 907
2139, 130, 79, 81, 168
2140, 225, 298, 297, 863
2141, 65, 67, 180, 200
2142, 1050, 25, 1025, 951
2143, 370, 862, 374, 960
2144, 381, 896, 51, 393
2145, 300, 228, 389, 861
2146, 760, 965, 561, 993
2147, 236, 191, 329, 845
2148, 256, 131, 270, 129
2149, 440, 671, 997, 1003
2150, 370, 921, 862, 960
2151, 610, 1037, 788, 1017
2152, 90, 939, 91, 991
2153, 277, 843, 167, 1002
2154, 89, 188, 921, 940
2155, 614, 623, 613, 941
2156, 317, 400, 342, 836
2157, 575, 574, 569, 842
2158, 140, 200, 67, 322
2159, 317, 281, 400, 836
2160, 405, 263, 80, 285
2161, 143, 918, 261, 1007
2162, 632, 470, 794, 926
2163, 611, 1037, 609, 607
2164, 222, 200, 140, 1032
2165, 842, 909, 870, 945
2166, 796, 919, 867, 996
2167, 888, 425, 5, 784
2168, 353, 392, 852, 961
2169, 628, 696, 902, 1010
2170, 628, 902, 741, 1010
2171, 195, 371, 334, 925
2172, 143, 878, 918, 1007
2173, 936, 654, 533, 756
2174, 876, 479, 790, 481
2175, 312, 205, 894, 942
2176, 785, 830, 589, 900
2177, 762, 705, 639, 868
2178, 521, 746, 845, 963
2179, 859, 902, 901, 1010
2180, 804, 882, 856, 917
2181, 227, 228, 58, 898
2182, 3, 848, 760, 993
2183, 166, 190, 223, 852
2184, 848, 965, 760, 993
2185, 82, 83, 81, 243
2186, 535, 723, 15, 985
2187, 706, 634, 482, 886
2188, 714, 876, 684, 903
2189, 28, 27, 874, 951
2190, 592, 913, 593, 976
2191, 707, 421, 708, 920
2192, 188, 940, 268, 979
2193, 878, 1002, 673, 1007
2194, 651, 746, 626, 877
2195, 1028, 77, 79, 207
2196, 880, 936, 818, 1005
2197, 266, 224, 184, 841
2198, 494, 523, 744, 883
2199, 125, 144, 314, 853
2200, 600, 879, 688, 599
2201, 138, 894, 128, 135
2202, 870, 919, 796, 996
2203, 703, 547, 855, 967
2204, 155, 831, 947, 980
2205, 272, 221, 296, 975
2206, 6, 7, 426, 1009
2207, 63, 370, 369, 862
2208, 57, 874, 398, 962
2209, 346, 79, 130, 112
2210, 805, 913, 841, 990
2211, 629, 918, 878, 1007
2212, 340, 203, 407, 991
2213, 643, 844, 604, 965
2214, 400, 949, 836, 1000
2215, 559, 678, 691, 855
2216, 116, 113, 111, 969
2217, 193, 389, 307, 962
2218, 887, 976, 817, 989
2219, 283, 413, 368, 942
2220, 266, 841, 184, 989
2221, 447, 450, 956, 783
2222, 527, 528, 529, 953
2223, 998, 740, 844, 974
2224, 815, 901, 859, 902
2225, 867, 919, 798, 933
2226, 247, 142, 206, 912
2227, 436, 435, 437, 997
2228, 315, 921, 960, 979
2229, 509, 511, 832, 510
2230, 750, 708, 421, 905
2231, 441, 440, 438, 865
2232, 826, 813, 954, 1000
2233, 571, 653, 858, 994
2234, 862, 921, 361, 960
2235, 77, 1028, 1031, 207
2236, 338, 877, 375, 261
2237, 39, 56, 949, 1005
2238, 483, 791, 485, 829
2239, 668, 753, 616, 869
2240, 822, 938, 838, 966
2241, 423, 838, 13, 938
2242, 843, 878, 167, 1002
2243, 810, 882, 847, 937
2244, 535, 708, 709, 920
2245, 454, 455, 908, 456
2246, 118, 119, 120, 981
2247, 3, 652, 760, 848
2248, 545, 520, 544, 928
2249, 95, 96, 94, 873
2250, 184, 931, 198, 989
2251, 179, 68, 66, 405
2252, 800, 864, 829, 972
2253, 375, 260, 399, 893
2254, 636, 901, 958, 987
2255, 669, 752, 877, 1007
2256, 271, 229, 404, 898
2257, 478, 876, 479, 477
2258, 21, 20, 874, 927
2259, 191, 329, 845, 1004
2260, 157, 881, 163, 980
2261, 1017, 544, 1035, 607
2262, 998, 740, 974, 46
2263, 282, 1016, 1033, 358
2264, 127, 126, 872, 981
2265, 981, 128, 286, 942
2266, 155, 947, 156, 980
2267, 723, 423, 14, 966
2268, 336, 862, 361, 960
2269, 660, 700, 593, 913
2270, 233, 904, 407, 955
2271, 6, 372, 65, 943
2272, 312, 205, 349, 894
2273, 822, 975, 938, 985
2274, 12, 395, 60, 853
2275, 238, 356, 897, 898
2276, 408, 80, 207, 168
2277, 104, 339, 106, 875
2278, 66, 263, 405, 285
2279, 692, 786, 678, 855
2280, 330, 896, 16, 985
2281, 199, 169, 147, 866
2282, 94, 866, 889, 991
2283, 493, 495, 494, 915
2284, 480, 478, 719, 886
2285, 188, 275, 960, 979
2286, 592, 534, 887, 976
2287, 599, 597, 890, 913
2288, 695, 891, 646, 983
2289, 1033, 247, 1001, 327
2290, 1037, 788, 683, 610
2291, 749, 883, 722, 1010
2292, 830, 908, 808, 922
2293, 194, 373, 882, 924
2294, 860, 871, 795, 959
2295, 89, 88, 86, 940
2296, 683, 550, 545, 928
2297, 273, 274, 316, 970
2298, 752, 1002, 651, 877
2299, 131, 1047, 148, 182
2300, 791, 579, 742, 864
2301, 265, 251, 308, 320
2302, 382, 36, 35, 882
2303, 44, 43, 71, 837
2304, 14, 347, 64, 938
2305, 760, 561, 2, 993
2306, 963, 986, 837, 1004
2307, 800, 892, 864, 972
2308, 101, 293, 1028, 207
2309, 354, 333, 54, 860
2310, 921, 940, 188, 979
2311, 368, 413, 206, 942
2312, 273, 401, 336, 862
2313, 41, 832, 764, 954
2314, 94, 91, 866, 991
2315, 767, 867, 919, 996
2316, 166, 872, 126, 914
2317, 459, 458, 457, 892
2318, 321, 183, 196, 835
2319, 244, 904, 233, 955
2320, 615, 575, 569, 842
2321, 654, 934, 818, 984
2322, 354, 334, 333, 860
2323, 981, 286, 128, 123
2324, 390, 220, 309, 943
2325, 718, 717, 522, 922
2326, 1037, 544, 683, 788
2327, 767, 919, 870, 996
2328, 974, 965, 643, 848
2329, 1031, 1028, 293, 207
2330, 511, 832, 906, 987
2331, 698, 927, 824, 983
2332, 831, 947, 896, 850
2333, 21, 769, 20, 927
2334, 117, 907, 960, 969
2335, 113, 268, 82, 979
2336, 153, 834, 197, 947
2337, 344, 1020, 50, 208
2338, 680, 464, 666, 849
2339, 311, 316, 274, 970
2340, 741, 573, 710, 902
2341, 290, 289, 304, 1015
2342, 851, 934, 453, 984
2343, 648, 717, 718, 922
2344, 14, 15, 723, 985
2345, 551, 552, 933, 967
2346, 709, 597, 592, 887
2347, 719, 491, 480, 886
2348, 143, 1002, 878, 1007
2349, 841, 976, 887, 989
2350, 617, 779, 704, 948
2351, 235, 177, 291, 854
2352, 1015, 1014, 304, 290
2353, 458, 911, 892, 972
2354, 37, 930, 882, 937
2355, 310, 411, 141, 904
2356, 674, 864, 579, 957
2357, 736, 950, 879, 988
2358, 183, 89, 188, 921
2359, 542, 628, 741, 1010
2360, 826, 954, 69, 1000
2361, 463, 735, 871, 30
2362, 796, 867, 944, 996
2363, 821, 833, 995, 1006
2364, 767, 867, 996, 675
2365, 858, 974, 45, 998
2366, 600, 879, 599, 890
2367, 440, 671, 436, 997
2368, 415, 1046, 1040, 245
2369, 672, 585, 590, 880
2370, 124, 952, 918, 977
2371, 163, 278, 279, 881
2372, 212, 39, 56, 949
2373, 155, 156, 157, 980
2374, 1034, 705, 532, 543
2375, 623, 777, 732, 992
2376, 419, 713, 758, 965
2377, 352, 241, 169, 939
2378, 204, 960, 907, 969
2379, 479, 1011, 490, 876
2380, 918, 952, 9, 977
2381, 1014, 238, 1015, 304
2382, 715, 447, 445, 971
2383, 692, 559, 555, 967
2384, 188, 361, 921, 960
2385, 103, 197, 153, 834
2386, 1018, 786, 855, 678
2387, 410, 313, 217, 962
2388, 543, 762, 641, 868
2389, 794, 682, 632, 972
2390, 758, 713, 712, 965
2391, 90, 904, 411, 955
2392, 573, 506, 935, 964
2393, 373, 37, 194, 882
2394, 11, 395, 12, 853
2395, 261, 918, 124, 952
2396, 134, 127, 223, 873
2397, 134, 392, 147, 873
2398, 222, 359, 406, 309
2399, 578, 688, 646, 879
2400, 604, 643, 694, 844
2401, 816, 994, 929, 998
2402, 623, 691, 613, 855
2403, 142, 912, 247, 1001
2404, 770, 1021, 538, 771
2405, 1018, 1037, 677, 612
2406, 859, 958, 901, 987
2407, 238, 1015, 304, 307
2408, 139, 912, 904, 1001
2409, 589, 540, 648, 922
2410, 290, 1014, 305, 292
2411, 561, 965, 439, 993
2412, 53, 1024, 359, 210
2413, 502, 505, 665, 915
2414, 131, 1047, 182, 270
2415, 864, 892, 809, 911
2416, 1026, 76, 75, 1038
2417, 605, 693, 526, 817
2418, 670, 909, 601, 945
2419, 618, 828, 830, 948
2420, 841, 913, 804, 990
2421, 550, 786, 703, 855
2422, 226, 333, 279, 895
2423, 1019, 173, 387, 121
2424, 498, 565, 566, 946
2425, 477, 714, 876, 490
2426, 35, 885, 382, 882
2427, 130, 81, 79, 346
2428, 668, 616, 587, 869
2429, 1049, 409, 24, 61
2430, 338, 877, 261, 952
2431, 214, 178, 177, 861
2432, 42, 986, 832, 1004
2433, 548, 551, 556, 933
2434, 462, 630, 475, 856
2435, 780, 849, 680, 992
2436, 94, 91, 384, 866
2437, 323, 910, 259, 943
2438, 736, 757, 950, 988
2439, 271, 339, 152, 850
2440, 65, 52, 7, 1009
2441, 187, 186, 172, 875
2442, 583, 582, 751, 868
2443, 315, 921, 370, 960
2444, 830, 922, 808, 999
2445, 948, 908, 828, 830
2446, 652, 784, 425, 888
2447, 318, 162, 296, 931
2448, 374, 370, 63, 862
2449, 97, 904, 889, 912
2450, 533, 725, 461, 847
2451, 768, 420, 668, 945
2452, 600, 597, 708, 890
2453, 72, 858, 910, 974
2454, 484, 480, 483, 876
2455, 586, 496, 665, 915
2456, 207, 328, 77, 285
2457, 709, 723, 535, 920
2458, 653, 726, 571, 858
2459, 460, 874, 21, 22
2460, 216, 874, 217, 962
2461, 813, 936, 880, 1005
2462, 616, 580, 587, 869
2463, 929, 994, 858, 998
2464, 635, 430, 585, 937
2465, 45, 929, 858, 998
2466, 23, 519, 22, 951
2467, 626, 669, 877, 893
2468, 389, 398, 300, 962
2469, 754, 713, 619, 965
2470, 575, 576, 574, 909
2471, 459, 465, 632, 892
2472, 90, 904, 955, 991
2473, 746, 651, 521, 845
2474, 398, 21, 20, 874
2475, 664, 870, 767, 919
2476, 760, 848, 643, 965
2477, 176, 167, 277, 843
2478, 851, 828, 935, 984
2479, 45, 302, 72, 858
2480, 638, 564, 754, 993
2481, 1017, 544, 607, 1037
2482, 859, 901, 815, 987
2483, 472, 474, 531, 903
2484, 458, 679, 911, 972
2485, 665, 497, 502, 915
2486, 143, 124, 261, 918
2487, 601, 576, 575, 909
2488, 440, 436, 438, 865
2489, 392, 223, 353, 852
2490, 452, 908, 522, 922
2491, 717, 644, 451, 922
2492, 10, 907, 629, 918
2493, 695, 556, 646, 891
2494, 564, 439, 965, 993
2495, 68, 66, 405, 285
2496, 204, 907, 10, 969
2497, 593, 700, 537, 976
2498, 422, 968, 637, 982
2499, 89, 366, 188, 940
2500, 364, 303, 47, 848
2501, 614, 941, 780, 992
2502, 694, 747, 562, 994
2503, 141, 904, 97, 912
2504, 50, 1020, 1, 993
2505, 703, 549, 547, 967
2506, 576, 670, 706, 909
2507, 592, 534, 661, 887
2508, 336, 361, 146, 960
2509, 206, 912, 205, 942
2510, 200, 1032, 222, 359
2511, 577, 675, 620, 867
2512, 346, 130, 256, 129
2513, 595, 422, 20, 927
2514, 580, 869, 616, 957
2515, 683, 545, 544, 928
2516, 277, 181, 329, 1002
2517, 561, 439, 2, 993
2518, 45, 858, 72, 974
2519, 18, 637, 905, 982
2520, 345, 1045, 344, 208
2521, 34, 35, 753, 840
2522, 138, 894, 135, 912
2523, 761, 650, 662, 973
2524, 243, 171, 240, 979
2525, 269, 349, 284, 894
2526, 103, 100, 98, 852
2527, 615, 569, 732, 992
2528, 186, 257, 381, 850
2529, 624, 910, 5, 943
2530, 128, 134, 135, 894
2531, 60, 347, 13, 938
2532, 134, 137, 135, 889
2533, 606, 1025, 1035, 518
2534, 379, 1045, 345, 208
2535, 178, 229, 271, 898
2536, 361, 401, 196, 862
2537, 412, 170, 120, 981
2538, 166, 172, 875, 914
2539, 466, 468, 465, 846
2540, 127, 894, 128, 981
2541, 767, 867, 675, 631
2542, 526, 515, 525, 817
2543, 690, 689, 721, 923
2544, 491, 634, 587, 886
2545, 143, 261, 181, 1002
2546, 892, 911, 864, 972
2547, 607, 1017, 609, 608
2548, 31, 871, 354, 959
2549, 331, 348, 62, 977
2550, 998, 740, 46, 431
2551, 770, 1021, 771, 687
2552, 1040, 415, 245, 149
2553, 576, 706, 733, 909
2554, 140, 200, 322, 1032
2555, 90, 89, 91, 939
2556, 482, 476, 765, 886
2557, 465, 468, 470, 926
2558, 609, 677, 1037, 612
2559, 172, 201, 306, 914
2560, 574, 598, 560, 909
2561, 552, 745, 551, 933
2562, 146, 117, 907, 960
2563, 538, 1021, 1034, 640
2564, 302, 399, 386, 857
2565, 320, 244, 308, 246
2566, 696, 586, 665, 915
2567, 463, 611, 657, 928
2568, 533, 457, 755, 978
2569, 822, 932, 975, 985
2570, 422, 793, 637, 968
2571, 501, 589, 785, 830
2572, 384, 91, 183, 939
2573, 37, 930, 937, 430
2574, 182, 1030, 1047, 148
2575, 449, 448, 447, 916
2576, 626, 669, 752, 877
2577, 228, 300, 58, 861
2578, 764, 596, 41, 954
2579, 660, 913, 599, 950
2580, 744, 789, 621, 883
2581, 188, 268, 940, 366
2582, 241, 939, 921, 940
2583, 328, 68, 405, 285
2584, 157, 159, 163, 881
2585, 48, 775, 47, 848
2586, 550, 703, 547, 855
2587, 1045, 1039, 344, 208
2588, 143, 125, 124, 918
2589, 271, 152, 154, 850
2590, 630, 461, 725, 917
2591, 27, 218, 28, 874
2592, 821, 975, 932, 985
2593, 691, 678, 612, 855
2594, 47, 364, 848, 974
2595, 374, 395, 11, 907
2596, 1023, 122, 391, 119
2597, 124, 145, 952, 977
2598, 742, 579, 674, 864
2599, 188, 275, 361, 960
2600, 882, 930, 847, 937
2601, 809, 935, 984, 818
2602, 889, 904, 93, 991
2603, 743, 686, 641, 868
2604, 76, 68, 179, 405
2605, 56, 357, 266, 924
2606, 79, 80, 81, 168
2607, 31, 735, 30, 871
2608, 429, 590, 39, 880
2609, 714, 684, 531, 903
2610, 711, 513, 627, 906
2611, 629, 10, 11, 907
2612, 203, 360, 407, 955
2613, 621, 622, 440, 1003
2614, 637, 750, 18, 905
2615, 107, 109, 118, 914
2616, 608, 607, 1035, 606
2617, 445, 443, 444, 971
2618, 527, 718, 522, 900
2619, 767, 870, 663, 996
2620, 299, 360, 165, 955
2621, 148, 131, 182, 133
2622, 385, 64, 347, 995
2623, 551, 549, 552, 967
2624, 896, 397, 381, 51
2625, 191, 301, 329, 1004
2626, 198, 184, 162, 931
2627, 10, 9, 62, 918
2628, 64, 330, 15, 985
2629, 696, 915, 505, 964
2630, 470, 472, 794, 926
2631, 709, 887, 661, 966
2632, 591, 627, 756, 936
2633, 779, 566, 565, 948
2634, 162, 318, 198, 931
2635, 151, 1045, 1024, 53
2636, 614, 613, 463, 941
2637, 105, 106, 107, 914
2638, 765, 598, 733, 909
2639, 215, 313, 230, 962
2640, 643, 694, 844, 994
2641, 613, 691, 612, 855
2642, 577, 891, 556, 933
2643, 354, 30, 195, 871
2644, 896, 947, 834, 850
2645, 632, 458, 892, 972
2646, 3, 4, 652, 888
2647, 538, 529, 532, 953
2648, 697, 501, 785, 830
2649, 486, 28, 766, 951
2650, 923, 997, 524, 1003
2651, 256, 270, 346, 129
2652, 571, 747, 653, 994
2653, 334, 337, 279, 925
2654, 731, 35, 36, 930
2655, 64, 15, 14, 985
2656, 510, 508, 667, 963
2657, 554, 553, 555, 967
2658, 366, 89, 86, 940
2659, 736, 599, 879, 950
2660, 166, 127, 126, 872
2661, 340, 137, 203, 991
2662, 692, 555, 553, 967
2663, 476, 477, 474, 903
2664, 282, 1016, 283, 234
2665, 492, 744, 724, 971
2666, 315, 960, 204, 979
2667, 519, 520, 460, 951
2668, 864, 911, 829, 972
2669, 484, 498, 582, 946
2670, 454, 452, 453, 984
2671, 628, 722, 696, 1010
2672, 21, 398, 57, 874
2673, 128, 127, 134, 894
2674, 414, 157, 163, 980
2675, 381, 896, 393, 834
2676, 498, 567, 751, 868
2677, 535, 707, 708, 920
2678, 39, 38, 56, 1005
2679, 761, 681, 603, 973
2680, 141, 97, 142, 912
2681, 121, 120, 119, 981
2682, 105, 269, 100, 872
2683, 781, 1025, 24, 518
2684, 9, 952, 8, 977
2685, 386, 259, 72, 910
2686, 479, 480, 481, 876
2687, 154, 153, 155, 947
2688, 652, 643, 760, 848
2689, 105, 319, 269, 872
2690, 141, 142, 267, 1001
2691, 30, 354, 31, 871
2692, 169, 137, 147, 866
2693, 610, 609, 1017, 608
2694, 93, 889, 97, 904
2695, 316, 311, 99, 970
2696, 230, 239, 962, 313
2697, 170, 349, 319, 981
2698, 374, 907, 204, 960
2699, 662, 650, 649, 884
2700, 346, 130, 81, 256
2701, 614, 735, 780, 941
2702, 754, 564, 713, 965
2703, 94, 889, 93, 991
2704, 1033, 232, 1001, 231
2705, 411, 90, 93, 904
2706, 844, 994, 816, 998
2707, 222, 140, 200, 180
2708, 590, 39, 880, 1005
2709, 636, 655, 901, 987
2710, 271, 404, 339, 897
2711, 998, 740, 431, 844
2712, 26, 486, 606, 951
2713, 824, 927, 806, 983
2714, 115, 288, 292, 897
2715, 632, 679, 458, 972
2716, 182, 131, 270, 256
2717, 685, 686, 584, 868
2718, 179, 67, 68, 140
2719, 47, 303, 48, 848
2720, 320, 308, 1027, 246
2721, 430, 517, 516, 930
2722, 15, 330, 16, 985
2723, 629, 878, 673, 1007
2724, 233, 407, 299, 955
2725, 749, 645, 722, 883
2726, 135, 137, 340, 889
2727, 806, 927, 824, 1008
2728, 211, 114, 303, 888
2729, 134, 223, 392, 873
2730, 647, 923, 524, 1003
2731, 142, 205, 206, 912
2732, 143, 167, 144, 878
2733, 422, 646, 688, 968
2734, 303, 364, 323, 888
2735, 1013, 951, 23, 22
2736, 419, 619, 713, 965
2737, 338, 242, 260, 893
2738, 1047, 280, 182, 270
2739, 819, 931, 887, 989
2740, 242, 893, 338, 1009
2741, 1033, 1022, 249, 255
2742, 554, 552, 553, 967
2743, 740, 46, 47, 974
2744, 707, 15, 16, 985
2745, 504, 502, 503, 999
2746, 1025, 24, 23, 781
2747, 680, 768, 601, 945
2748, 216, 217, 313, 962
2749, 664, 554, 557, 919
2750, 668, 670, 601, 945
2751, 67, 179, 180, 140
2752, 80, 79, 207, 168
2753, 854, 905, 797, 982
2754, 315, 370, 204, 960
2755, 81, 130, 168, 243
2756, 769, 698, 595, 927
2757, 33, 396, 298, 863
2758, 174, 167, 176, 843
2759, 50, 1, 1020, 344
2760, 145, 367, 338, 1009
2761, 109, 287, 1023, 1044
2762, 375, 181, 261, 877
2763, 424, 918, 629, 1007
2764, 314, 144, 175, 853
2765, 1033, 327, 1022, 255
2766, 671, 524, 997, 1003
2767, 208, 379, 1045, 210
2768, 818, 934, 880, 935
2769, 353, 223, 190, 852
2770, 595, 927, 698, 983
2771, 468, 471, 470, 926
2772, 68, 66, 67, 179
2773, 365, 267, 327, 1001
2774, 454, 455, 452, 908
2775, 108, 107, 106, 914
2776, 286, 121, 123, 981
2777, 324, 372, 5, 943
2778, 210, 1039, 53, 1045
2779, 454, 978, 456, 984
2780, 669, 893, 426, 1009
2781, 710, 672, 880, 935
2782, 179, 68, 76, 140
2783, 146, 125, 314, 907
2784, 90, 93, 904, 991
2785, 539, 900, 527, 953
2786, 449, 447, 450, 916
2787, 308, 1027, 265, 320
2788, 236, 181, 375, 877
2789, 64, 294, 330, 1006
2790, 238, 227, 356, 898
2791, 278, 185, 226, 895
2792, 576, 601, 670, 909
2793, 424, 9, 918, 952
2794, 1035, 1025, 781, 518
2795, 219, 199, 147, 961
2796, 469, 466, 658, 944
2797, 721, 647, 541, 923
2798, 284, 349, 205, 894
2799, 599, 660, 593, 913
2800, 690, 929, 45, 998
2801, 502, 497, 500, 999
2802, 696, 665, 505, 915
2803, 323, 72, 259, 910
2804, 149, 245, 1040, 148
2805, 53, 1024, 151, 359
2806, 818, 934, 935, 984
2807, 572, 851, 453, 956
2808, 774, 456, 458, 911
2809, 893, 952, 338, 1009
2810, 573, 902, 696, 964
2811, 479, 1011, 790, 530
2812, 297, 298, 396, 863
2813, 377, 171, 165, 940
2814, 553, 703, 692, 967
2815, 1014, 238, 304, 362
2816, 1046, 415, 320, 245
2817, 444, 489, 636, 958
2818, 880, 934, 818, 936
2819, 658, 475, 757, 944
2820, 296, 164, 272, 975
2821, 738, 1025, 23, 781
2822, 315, 940, 921, 979
2823, 160, 162, 161, 931
2824, 453, 934, 654, 984
2825, 705, 762, 543, 868
2826, 228, 238, 307, 898
2827, 242, 367, 213, 1009
2828, 567, 584, 729, 868
2829, 524, 923, 689, 997
2830, 204, 370, 374, 960
2831, 210, 1039, 1045, 208
2832, 275, 969, 960, 979
2833, 393, 896, 330, 1006
2834, 110, 108, 292, 1036
2835, 754, 619, 739, 993
2836, 718, 527, 539, 900
2837, 167, 878, 143, 1002
2838, 32, 464, 31, 959
2839, 482, 719, 478, 886
2840, 231, 912, 139, 1001
2841, 606, 1025, 518, 25
2842, 34, 420, 33, 899
2843, 188, 361, 196, 921
2844, 1027, 254, 308, 363
2845, 64, 995, 294, 1006
2846, 714, 705, 684, 876
2847, 779, 618, 704, 948
2848, 126, 1023, 391, 201
2849, 304, 1014, 305, 290
2850, 1049, 409, 23, 24
2851, 188, 196, 183, 921
2852, 580, 674, 579, 957
2853, 686, 743, 583, 868
2854, 371, 237, 334, 925
2855, 376, 298, 225, 990
2856, 258, 92, 88, 955
2857, 57, 398, 389, 962
2858, 117, 960, 275, 969
2859, 1033, 232, 231, 249
2860, 510, 521, 512, 963
2861, 695, 698, 546, 983
2862, 754, 739, 638, 993
2863, 736, 757, 660, 950
2864, 384, 95, 94, 866
2865, 62, 9, 331, 977
2866, 336, 401, 361, 862
2867, 390, 323, 259, 943
2868, 405, 76, 68, 328
2869, 495, 497, 496, 915
2870, 472, 470, 471, 926
2871, 887, 931, 819, 966
2872, 282, 1016, 234, 231
2873, 352, 370, 241, 921
2874, 173, 368, 412, 942
2875, 353, 219, 392, 961
2876, 482, 478, 476, 886
2877, 499, 500, 497, 999
2878, 400, 212, 342, 949
2879, 400, 212, 949, 1000
2880, 744, 523, 789, 883
2881, 194, 37, 36, 882
2882, 868, 1034, 640, 543
2883, 714, 639, 705, 876
2884, 767, 664, 663, 870
2885, 460, 874, 22, 951
2886, 511, 512, 513, 906
2887, 495, 496, 494, 915
2888, 145, 338, 952, 1009
2889, 748, 718, 539, 900
2890, 760, 643, 561, 965
2891, 851, 935, 934, 984
2892, 816, 923, 865, 997
2893, 777, 614, 780, 992
2894, 117, 125, 146, 907
2895, 749, 722, 570, 1010
2896, 645, 523, 586, 883
2897, 382, 298, 55, 885
2898, 665, 496, 497, 915
2899, 121, 122, 123, 981
2900, 489, 508, 509, 958
2901, 556, 577, 578, 891
2902, 578, 620, 736, 988
2903, 173, 283, 368, 942
2904, 711, 511, 906, 987
2905, 631, 554, 664, 919
2906, 686, 685, 640, 868
2907, 186, 166, 172, 875
2908, 539, 527, 529, 953
2909, 177, 155, 414, 980
2910, 658, 469, 944, 996
2911, 259, 242, 220, 943
2912, 789, 523, 645, 883
2913, 624, 425, 5, 910
2914, 787, 540, 716, 922
2915, 960, 969, 204, 979
2916, 312, 206, 205, 942
2917, 539, 748, 900, 953
2918, 17, 18, 750, 905
2919, 651, 626, 752, 877
2920, 241, 921, 315, 940
2921, 717, 451, 452, 922
2922, 778, 428, 673, 878
2923, 736, 688, 578, 879
2924, 767, 663, 469, 996
2925, 710, 573, 672, 935
2926, 689, 524, 647, 923
2927, 284, 97, 94, 889
2928, 374, 10, 204, 907
2929, 564, 638, 439, 993
2930, 717, 452, 522, 922
2931, 331, 8, 52, 977
2932, 275, 113, 969, 979
2933, 645, 586, 722, 883
2934, 709, 592, 661, 887
2935, 151, 1045, 53, 150
2936, 751, 567, 729, 868
2937, 669, 952, 893, 1009
2938, 424, 952, 918, 1007
2939, 4, 784, 652, 888
2940, 669, 426, 7, 1009
2941, 425, 624, 726, 910
2942, 94, 97, 93, 889
2943, 572, 783, 715, 956
2944, 666, 33, 420, 899
2945, 635, 672, 506, 935
2946, 73, 1026, 75, 1038
2947, 119, 118, 109, 1023
2948, 166, 223, 127, 872
2949, 107, 108, 109, 914
2950, 340, 407, 233, 904
2951, 676, 487, 664, 870
2952, 493, 644, 716, 916
2953, 731, 36, 516, 930
2954, 713, 734, 712, 965
2955, 412, 368, 312, 942
2956, 287, 1044, 110, 383
2957, 57, 22, 21, 874
2958, 17, 750, 421, 905
2959, 648, 718, 748, 900
2960, 164, 158, 295, 932
2961, 636, 958, 509, 987
2962, 261, 124, 145, 952
2963, 375, 338, 260, 893
2964, 770, 1021, 687, 953
2965, 316, 321, 401, 970
2966, 646, 595, 695, 983
2967, 974, 994, 844, 998
2968, 858, 994, 974, 998
2969, 159, 278, 163, 881
2970, 447, 446, 445, 971
2971, 190, 166, 186, 875
2972, 688, 736, 599, 879
2973, 182, 1030, 148, 250
2974, 50, 638, 739, 993
2975, 57, 389, 193, 962
2976, 669, 952, 424, 1007
2977, 62, 204, 10, 969
2978, 99, 321, 316, 970
2979, 590, 429, 710, 880
2980, 316, 401, 273, 970
2981, 382, 34, 298, 885
2982, 561, 643, 604, 965
2983, 356, 187, 238, 897
2984, 150, 1039, 344, 1045
2985, 138, 139, 231, 912
2986, 3, 760, 2, 993
2987, 387, 234, 283, 942
2988, 1027, 320, 246, 253
2989, 1041, 252, 254, 253
2990, 439, 563, 564, 965
2991, 159, 160, 161, 931
2992, 76, 77, 75, 1038
2993, 460, 22, 519, 951
2994, 68, 67, 70, 1048
2995, 1027, 254, 363, 253
2996, 648, 748, 589, 900
2997, 521, 667, 746, 963
2998, 622, 671, 440, 1003
2999, 599, 593, 597, 913
3000, 36, 382, 194, 882
3001, 292, 305, 110, 1036
3002, 249, 252, 1022, 246
3003, 1026, 1048, 76, 68
3004, 79, 77, 80, 207
3005, 205, 142, 97, 912
3006, 574, 576, 733, 909
3007, 540, 501, 499, 999
3008, 574, 733, 598, 909
3009, 674, 730, 516, 957
3010, 268, 275, 188, 979
3011, 657, 611, 607, 928
3012, 172, 166, 126, 914
3013, 77, 76, 405, 328
3014, 585, 937, 37, 1005
3015, 631, 664, 767, 919
3016, 14, 423, 13, 938
3017, 400, 281, 69, 1000
3018, 170, 118, 120, 981
3019, 1041, 365, 394, 246
3020, 46, 45, 974, 998
3021, 424, 8, 9, 952
3022, 480, 484, 481, 876
3023, 241, 203, 169, 939
3024, 573, 506, 672, 935
3025, 359, 1032, 222, 406
3026, 684, 679, 682, 972
3027, 551, 577, 556, 933
3028, 289, 380, 1015, 230
3029, 108, 110, 109, 1044
3030, 658, 466, 475, 944
3031, 572, 715, 901, 956
3032, 54, 396, 32, 959
3033, 787, 648, 540, 922
3034, 1021, 1034, 953, 538
3035, 654, 453, 591, 934
3036, 669, 424, 752, 1007
3037, 663, 664, 487, 870
3038, 237, 337, 334, 925
3039, 449, 451, 644, 916
3040, 422, 637, 19, 982
3041, 160, 158, 164, 932
3042, 865, 997, 923, 1003
3043, 123, 127, 128, 981
3044, 110, 383, 1044, 1036
3045, 832, 986, 963, 1004
3046, 537, 534, 592, 976
3047, 439, 561, 563, 965
3048, 451, 449, 450, 916
3049, 127, 123, 126, 981
3050, 597, 600, 599, 890
3051, 649, 651, 662, 884
3052, 365, 1041, 308, 246
3053, 331, 9, 8, 977
3054, 391, 1044, 1023, 287
3055, 241, 377, 939, 940
3056, 646, 556, 578, 891
3057, 206, 312, 368, 942
3058, 448, 449, 644, 916
3059, 45, 690, 44, 929
3060, 31, 354, 54, 959
3061, 706, 733, 1012, 482
3062, 634, 491, 719, 886
3063, 498, 484, 485, 946
3064, 658, 675, 469, 996
3065, 685, 773, 772, 1021
3066, 1028, 207, 79, 112
3067, 634, 719, 482, 886
3068, 393, 294, 353, 1006
3069, 583, 751, 729, 868
3070, 391, 1044, 287, 383
3071, 629, 778, 673, 878
3072, 141, 93, 97, 904
3073, 27, 217, 216, 874
3074, 492, 724, 446, 971
3075, 27, 216, 218, 874
3076, 792, 423, 661, 966
3077, 628, 696, 573, 902
3078, 164, 274, 272, 975
3079, 624, 5, 6, 943
3080, 215, 214, 216, 962
3081, 626, 426, 669, 893
3082, 596, 40, 41, 954
3083, 446, 724, 443, 971
3084, 763, 618, 779, 948
3085, 503, 500, 697, 999
3086, 330, 393, 51, 896
3087, 288, 115, 404, 897
3088, 709, 661, 723, 966
3089, 118, 170, 319, 981
3090, 1044, 306, 383, 201
3091, 173, 387, 283, 942
3092, 484, 582, 481, 876
3093, 42, 43, 986, 1004
3094, 524, 689, 432, 997
3095, 436, 434, 435, 997
3096, 146, 275, 117, 960
3097, 448, 644, 493, 916
3098, 183, 91, 89, 939
3099, 117, 113, 116, 969
3100, 139, 340, 233, 904
3101, 115, 339, 404, 897
3102, 231, 282, 1033, 249
3103, 1033, 247, 327, 358
3104, 714, 490, 639, 876
3105, 710, 672, 590, 880
3106, 16, 330, 51, 896
3107, 459, 632, 458, 892
3108, 602, 504, 618, 828
3109, 424, 629, 673, 1007
3110, 376, 225, 224, 990
3111, 669, 8, 952, 1009
3112, 463, 735, 614, 941
3113, 525, 650, 603, 973
3114, 431, 427, 46, 998
3115, 729, 584, 686, 868
3116, 48, 114, 49, 993
3117, 131, 1042, 270, 129
3118, 769, 595, 20, 927
3119, 1028, 207, 112, 101
3120, 94, 93, 91, 991
3121, 553, 552, 549, 967
3122, 59, 371, 28, 1008
3123, 680, 615, 780, 992
3124, 643, 653, 694, 994
3125, 43, 536, 418, 986
3126, 203, 241, 377, 939
3127, 130, 346, 112, 129
3128, 123, 122, 126, 981
3129, 715, 636, 655, 901
3130, 102, 112, 1029, 129
3131, 238, 187, 362, 897
3132, 693, 756, 627, 936
3133, 131, 1042, 129, 335
3134, 622, 702, 671, 1003
3135, 45, 72, 46, 974
3136, 18, 19, 637, 982
3137, 342, 212, 56, 949
3138, 279, 278, 226, 895
3139, 434, 436, 671, 997
3140, 502, 500, 503, 999
3141, 1044, 306, 201, 914
3142, 138, 135, 139, 912
3143, 8, 7, 52, 1009
3144, 373, 357, 56, 924
3145, 1042, 1029, 417, 270
3146, 697, 500, 501, 999
3147, 671, 702, 524, 1003
3148, 117, 275, 113, 969
3149, 50, 1, 638, 993
3150, 245, 1030, 1040, 148
3151, 689, 647, 721, 923
3152, 703, 553, 549, 967
3153, 2, 378, 3, 993
3154, 171, 940, 315, 979
3155, 50, 739, 49, 993
3156, 585, 37, 38, 1005
3157, 513, 711, 511, 906
3158, 693, 515, 526, 817
3159, 411, 93, 141, 904
3160, 427, 690, 45, 998
3161, 702, 647, 524, 1003
3162, 458, 679, 774, 911
3163, 315, 241, 370, 921
3164, 686, 583, 729, 868
3165, 124, 116, 145, 977
3166, 275, 268, 113, 979
3167, 636, 509, 655, 987
3168, 142, 247, 267, 1001
3169, 734, 563, 604, 965
3170, 660, 599, 736, 950
3171, 695, 595, 698, 983
3172, 286, 234, 387, 942
3173, 155, 157, 414, 980
3174, 572, 715, 655, 901
3175, 690, 536, 44, 929
3176, 29, 766, 28, 1008
3177, 454, 755, 978, 984
3178, 498, 485, 565, 946
3179, 36, 430, 516, 930
3180, 688, 793, 422, 968
3181, 790, 1011, 479, 876
3182, 524, 434, 671, 997
3183, 424, 669, 8, 952
3184, 711, 655, 511, 987
3185, 452, 455, 522, 908
3186, 10, 374, 11, 907
3187, 668, 601, 768, 945
3188, 618, 759, 602, 828
3189, 153, 197, 156, 947
3190, 261, 145, 338, 952
3191, 450, 572, 453, 956
3192, 538, 770, 529, 953
3193, 13, 347, 14, 938
3194, 194, 357, 373, 924
3195, 563, 561, 604, 965
3196, 282, 255, 358, 1033
3197, 189, 397, 257, 850
3198, 390, 259, 220, 943
3199, 172, 126, 201, 914
3200, 1027, 254, 253, 1041
3201, 700, 630, 605, 917
3202, 777, 615, 732, 992
3203, 266, 198, 342, 989
3204, 506, 573, 505, 964
3205, 1040, 325, 1030, 245
3206, 787, 717, 648, 922
3207, 793, 688, 600, 968
3208, 1033, 327, 255, 358
3209, 42, 191, 43, 1004
3210, 725, 605, 630, 917
3211, 181, 167, 143, 1002
3212, 28, 486, 27, 951
3213, 736, 620, 757, 988
3214, 138, 286, 128, 942
3215, 348, 240, 62, 969
3216, 446, 443, 445, 971
3217, 424, 9, 10, 918
3218, 287, 109, 110, 1044
3219, 674, 580, 730, 957
3220, 112, 346, 1029, 129
3221, 327, 267, 247, 1001
3222, 1029, 85, 102, 343
3223, 434, 524, 432, 997
3224, 79, 207, 168, 112
3225, 246, 252, 1022, 1041
3226, 424, 10, 629, 918
3227, 46, 72, 364, 974
3228, 228, 227, 238, 898
3229, 573, 696, 505, 964
3230, 669, 7, 8, 1009
3231, 1031, 75, 77, 1038
3232, 454, 457, 456, 978
3233, 266, 184, 198, 989
3234, 739, 619, 49, 993
3235, 2, 439, 1, 993
3236, 68, 1026, 73, 328
3237, 145, 116, 264, 977
3238, 682, 679, 632, 972
3239, 593, 537, 592, 976
3240, 136, 1042, 335, 129
3241, 277, 167, 181, 1002
3242, 303, 323, 211, 888
3243, 542, 570, 628, 1010
3244, 702, 749, 647, 1003
3245, 68, 73, 1026, 70
3246, 454, 654, 755, 984
3247, 49, 619, 48, 993
3248, 1, 378, 2, 993
3249, 195, 29, 371, 1008
3250, 156, 155, 153, 947
3251, 54, 32, 31, 959
3252, 1032, 1024, 406, 359
3253, 147, 392, 219, 961
3254, 286, 138, 234, 942
3255, 730, 580, 616, 957
3256, 539, 529, 770, 953
3257, 573, 741, 628, 902
3258, 171, 315, 240, 979
3259, 78, 77, 79, 1028
3260, 41, 301, 42, 1004
3261, 1048, 67, 70, 322
3262, 258, 90, 411, 955
3263, 1030, 245, 248, 148
3264, 713, 564, 734, 965
3265, 469, 675, 767, 996
3266, 290, 289, 1015, 288
3267, 40, 69, 41, 954
3268, 748, 699, 589, 900
3269, 510, 667, 521, 963
3270, 745, 577, 551, 933
3271, 779, 565, 763, 948
3272, 328, 77, 1031, 207
3273, 325, 1030, 245, 248
3274, 275, 146, 361, 960
3275, 400, 403, 212, 1000
3276, 1028, 79, 85, 1043
3277, 650, 761, 603, 973
3278, 345, 151, 150, 1045
3279, 1029, 85, 343, 346
3280, 43, 418, 42, 986
3281, 64, 385, 262, 995
3282, 350, 222, 1032, 406
3283, 64, 262, 294, 995
3284, 539, 687, 748, 953
3285, 231, 139, 232, 1001
3286, 325, 1040, 1046, 245
3287, 294, 393, 330, 1006
3288, 1032, 1024, 350, 406
3289, 242, 338, 367, 1009
3290, 1022, 255, 252, 249
3291, 1033, 232, 249, 1022
3292, 191, 42, 301, 1004
3293, 1033, 247, 358, 1016
3294, 640, 1034, 868, 685
3295, 77, 78, 1031, 1028
3296, 770, 687, 539, 953
3297, 755, 457, 454, 978
3298, 204, 969, 240, 979
3299, 699, 900, 748, 953
3300, 61, 192, 239, 1013
3301, 216, 313, 215, 962
3302, 74, 1026, 73, 70
3303, 1024, 351, 350, 151
3304, 714, 474, 477, 903
3305, 47, 46, 364, 974
3306, 299, 407, 360, 955
3307, 714, 531, 474, 903
3308, 655, 509, 511, 987
3309, 372, 6, 5, 943
3310, 1046, 320, 326, 245
3311, 282, 255, 1033, 249
3312, 241, 315, 377, 940
3313, 140, 209, 222, 1032
3314, 636, 489, 509, 958
3315, 27, 486, 26, 951
3316, 79, 85, 78, 1028
3317, 280, 1047, 388, 270
3318, 1048, 70, 209, 322
3319, 28, 371, 29, 1008
3320, 90, 91, 93, 991
3321, 734, 564, 563, 965
3322, 661, 423, 723, 966
3323, 38, 590, 585, 1005
3324, 1042, 1029, 270, 129
3325, 403, 400, 69, 1000
3326, 173, 1019, 120, 121
3327, 325, 1046, 326, 245
3328, 450, 783, 572, 956
3329, 335, 388, 1047, 1042
3330, 1024, 379, 350, 406
3331, 346, 85, 79, 1043
3332, 1021, 772, 685, 640
3333, 88, 90, 258, 955
3334, 1026, 1048, 68, 70
3335, 499, 501, 500, 999
3336, 46, 427, 45, 998
3337, 454, 453, 654, 984
3338, 1024, 351, 151, 359
3339, 320, 265, 1046, 1027
3340, 293, 73, 75, 1038
3341, 287, 119, 109, 1023
3342, 430, 37, 585, 937
3343, 101, 293, 78, 1028
3344, 1029, 346, 270, 129
3345, 747, 694, 653, 994
3346, 752, 424, 673, 1007
3347, 377, 315, 171, 940
3348, 151, 379, 350, 1024
3349, 62, 240, 204, 969
3350, 210, 379, 1024, 406
3351, 209, 74, 70, 1048
3352, 397, 381, 257, 850
3353, 315, 204, 240, 979
3354, 570, 722, 628, 1010
3355, 748, 687, 699, 953
3356, 590, 38, 39, 1005
3357, 699, 773, 588, 953
3358, 615, 777, 780, 992
3359, 253, 1027, 320, 326
3360, 1021, 773, 687, 953
3361, 74, 1026, 75, 73
3362, 246, 252, 1041, 253
3363, 78, 75, 77, 1031
3364, 210, 1024, 359, 406
3365, 248, 280, 1030, 1047
3366, 287, 119, 1023, 391
3367, 677, 1018, 612, 678
3368, 1032, 209, 222, 350
3369, 699, 687, 773, 953
3370, 610, 1017, 737, 608
3371, 85, 101, 1043, 102
3372, 345, 150, 344, 1045
3373, 102, 1029, 136, 129
3374, 1023, 981, 119, 118
3375, 1025, 25, 24, 518
3376, 1042, 335, 388, 136
3377, 518, 781, 1035, 737
3378, 1047, 248, 280, 388
3379, 528, 803, 467, 581
3380, 528, 803, 581, 823
3381, 753, 899, 945, 420
3382, 945, 899, 753, 840
3383, 515, 836, 514, 525
3384, 515, 836, 525, 817
3385, 844, 432, 998, 816
3386, 844, 998, 432, 431
3387, 976, 605, 700, 537
3388, 976, 700, 605, 917
3389, 1034, 705, 543, 868
3390, 532, 1034, 543, 538
3391, 176, 884, 281, 973
3392, 884, 281, 973, 836
3393, 176, 884, 973, 843
3394, 973, 317, 281, 176
3395, 895, 297, 225, 226
3396, 895, 225, 297, 805
3397, 943, 200, 65, 220
3398, 943, 65, 200, 372
3399, 874, 214, 839, 861
3400, 874, 839, 214, 218
3401, 924, 990, 376, 357
3402, 376, 990, 924, 804
3403, 376, 194, 924, 357
3404, 924, 194, 376, 804
3405, 982, 300, 58, 19
3406, 982, 58, 300, 861
3407, 674, 957, 517, 864
3408, 809, 517, 957, 864
3409, 809, 957, 517, 930
3410, 955, 251, 310, 258
3411, 955, 310, 251, 244
3412, 1013, 874, 217, 951
3413, 1013, 874, 951, 22
3414, 856, 700, 630, 660
3415, 856, 700, 660, 804
3416, 850, 831, 898, 189
3417, 391, 1044, 201, 1023
3418, 898, 227, 850, 189
3419, 391, 1044, 383, 201
3420, 994, 507, 562, 816
3421, 994, 562, 507, 747
3422, 893, 386, 399, 857
3423, 893, 399, 386, 260
3424, 888, 390, 943, 323
3425, 351, 209, 1032, 350
3426, 870, 468, 996, 846
3427, 870, 996, 468, 663
3428, 933, 941, 967, 798
3429, 967, 941, 933, 820
3430, 818, 635, 935, 585
3431, 585, 880, 935, 818
3432, 935, 880, 585, 672
3433, 738, 951, 544, 519
3434, 1035, 951, 544, 738
3435, 943, 200, 324, 372
3436, 943, 324, 200, 309
3437, 861, 189, 18, 58
3438, 861, 18, 189, 831
3439, 950, 804, 660, 913
3440, 950, 660, 804, 812
3441, 892, 978, 458, 457
3442, 911, 978, 892, 809
3443, 505, 999, 915, 502
3444, 964, 999, 505, 504
3445, 797, 839, 925, 854
3446, 797, 839, 854, 982
3447, 882, 55, 382, 194
3448, 882, 55, 194, 804
3449, 844, 659, 604, 633
3450, 844, 604, 659, 694
3451, 919, 967, 555, 798
3452, 555, 967, 919, 554
3453, 955, 251, 92, 299
3454, 955, 92, 251, 258
3455, 867, 891, 933, 795
3456, 867, 891, 795, 988
3457, 870, 560, 919, 676
3458, 870, 919, 560, 842
3459, 557, 919, 560, 676
3460, 933, 631, 867, 919
3461, 933, 867, 631, 745
3462, 767, 867, 631, 919
3463, 675, 631, 867, 745
3464, 1013, 217, 962, 410
3465, 1013, 217, 410, 332
3466, 126, 1023, 201, 914
3467, 735, 849, 959, 464
3468, 735, 849, 464, 780
3469, 888, 390, 323, 211
3470, 888, 390, 211, 309
3471, 881, 890, 895, 797
3472, 895, 890, 881, 807
3473, 1000, 212, 39, 403
3474, 1000, 39, 212, 949
3475, 855, 798, 941, 623
3476, 855, 798, 623, 559
3477, 948, 594, 759, 803
3478, 948, 759, 594, 763
3479, 971, 956, 901, 715
3480, 971, 901, 956, 802
3481, 92, 415, 149, 299
3482, 92, 415, 299, 251
3483, 986, 764, 859, 418
3484, 986, 859, 764, 832
3485, 276, 263, 202, 285
3486, 276, 202, 263, 111
3487, 863, 988, 899, 795
3488, 899, 988, 863, 812
3489, 322, 209, 1032, 351
3490, 181, 845, 329, 1002
3491, 1000, 39, 40, 403
3492, 1000, 40, 39, 813
3493, 1032, 1024, 351, 350
3494, 989, 266, 949, 342
3495, 695, 820, 546, 548
3496, 695, 546, 820, 983
3497, 759, 948, 618, 763
3498, 618, 948, 759, 828
3499, 58, 898, 189, 227
3500, 189, 898, 58, 861
3501, 1000, 40, 69, 403
3502, 1000, 69, 40, 954
3503, 515, 936, 693, 627
3504, 693, 936, 515, 817
3505, 830, 617, 704, 948
3506, 830, 617, 948, 785
3507, 701, 641, 868, 743
3508, 868, 641, 701, 762
3509, 898, 404, 288, 229
3510, 898, 288, 404, 897
3511, 992, 614, 623, 777
3512, 992, 623, 614, 941
3513, 817, 924, 917, 810
3514, 1023, 981, 122, 119
3515, 934, 572, 453, 591
3516, 934, 453, 572, 851
3517, 302, 910, 386, 72
3518, 302, 910, 72, 858
3519, 980, 947, 932, 801
3520, 980, 932, 156, 157
3521, 980, 932, 947, 156
3522, 980, 932, 157, 881
3523, 364, 910, 72, 323
3524, 364, 910, 323, 888
3525, 951, 657, 766, 486
3526, 951, 766, 657, 824
3527, 932, 159, 160, 158
3528, 932, 160, 159, 931
3529, 601, 842, 909, 575
3530, 601, 842, 575, 680
3531, 425, 858, 653, 974
3532, 425, 858, 974, 910
3533, 980, 291, 177, 854
3534, 980, 177, 291, 414
3535, 967, 551, 548, 933
3536, 967, 548, 551, 549
3537, 982, 20, 300, 19
3538, 982, 300, 20, 839
3539, 960, 336, 907, 146
3540, 960, 907, 336, 862
3541, 394, 255, 252, 1022
3542, 394, 246, 1022, 1041
3543, 255, 394, 327, 1022
3544, 543, 641, 640, 868
3545, 957, 731, 516, 930
3546, 957, 516, 731, 730
3547, 619, 848, 965, 775
3548, 619, 848, 775, 48
3549, 43, 929, 44, 536
3550, 43, 929, 536, 986
3551, 613, 928, 612, 611
3552, 612, 928, 613, 855
3553, 985, 535, 707, 15
3554, 985, 707, 535, 920
3555, 936, 591, 711, 934
3556, 936, 711, 591, 627
3557, 885, 376, 298, 55
3558, 885, 376, 55, 804
3559, 640, 641, 686, 868
3560, 380, 962, 239, 193
3561, 23, 192, 1013, 22
3562, 1013, 192, 23, 409
3563, 936, 654, 591, 934
3564, 936, 591, 654, 756
3565, 1049, 409, 61, 1013
3566, 1049, 409, 1013, 23
3567, 1049, 24, 23, 1025
3568, 1049, 24, 25, 61
3569, 785, 699, 900, 589
3570, 900, 699, 785, 728
3571, 17, 51, 896, 16
3572, 17, 896, 51, 397
3573, 26, 217, 951, 332
3574, 951, 217, 26, 27
3575, 37, 930, 430, 36
3576, 37, 930, 36, 882
3577, 957, 517, 516, 674
3578, 957, 516, 517, 930
3579, 818, 635, 585, 937
3580, 635, 935, 585, 672
3581, 919, 560, 558, 557
3582, 919, 558, 560, 842
3583, 351, 1032, 322, 359
3584, 57, 1013, 962, 192
3585, 57, 1013, 192, 22
3586, 57, 1013, 22, 874
3587, 252, 394, 1022, 1041
3588, 642, 816, 659, 562
3589, 305, 292, 1014, 1036
3590, 642, 816, 562, 865
3591, 232, 1022, 394, 246
3592, 865, 444, 443, 811
3593, 606, 1025, 25, 951
3594, 865, 443, 444, 442
3595, 544, 1035, 738, 737
3596, 728, 568, 617, 823
3597, 1029, 1043, 112, 102
3598, 876, 790, 868, 582
3599, 1032, 1024, 359, 351
3600, 701, 1011, 790, 868
3601, 1022, 394, 327, 1001
3602, 790, 701, 530, 1011
3603, 765, 814, 1012, 886
3604, 1012, 814, 765, 909
3605, 1012, 765, 733, 909
3606, 765, 1012, 482, 886
3607, 1012, 733, 765, 482
3608, 1029, 1043, 346, 112
3609, 712, 433, 758, 844
3610, 101, 1028, 1043, 112
3611, 496, 883, 586, 523
3612, 1043, 101, 112, 102
3613, 496, 883, 523, 494
3614, 346, 1043, 79, 112
3615, 1013, 61, 332, 410
3616, 1013, 239, 410, 962
3617, 61, 1013, 239, 410
3618, 1013, 951, 217, 332
3619, 57, 1013, 874, 962
3620, 1014, 238, 362, 897
3621, 1036, 897, 292, 1014
3622, 1036, 362, 306, 897
3623, 304, 362, 305, 1014
3624, 1015, 307, 898, 962
3625, 1028, 79, 1043, 112
3626, 380, 307, 1015, 962
3627, 322, 209, 1048, 1032
3628, 289, 380, 307, 1015
3629, 78, 75, 1031, 293
3630, 645, 749, 702, 1003
3631, 200, 322, 1032, 359
3632, 1031, 78, 293, 1028
3633, 328, 1031, 293, 207
3634, 283, 1016, 413, 942
3635, 413, 283, 358, 1016
3636, 1022, 232, 394, 1001
3637, 771, 772, 1021, 640
3638, 830, 617, 785, 697
3639, 830, 617, 697, 704
3640, 1017, 544, 1037, 788
3641, 607, 1037, 609, 1017
3642, 610, 609, 1037, 1017
3643, 610, 788, 737, 1017
3644, 140, 200, 180, 67
3645, 478, 876, 477, 903
3646, 417, 1042, 388, 136
3647, 1018, 786, 678, 776
3648, 776, 550, 683, 1018
3649, 1018, 786, 776, 550
3650, 776, 683, 677, 1018
3651, 677, 776, 1018, 678
3652, 417, 388, 1042, 270
3653, 692, 678, 559, 855
3654, 1042, 1029, 136, 417
3655, 1019, 942, 981, 286
3656, 1013, 1049, 1050, 332
3657, 1050, 25, 951, 332
3658, 1013, 951, 332, 1050
*ELSET,ELSET=UFC
1, 2, 3, 4, 5, 6, 7, 8, 9, 10, 
11, 12, 13, 14, 15, 16, 17, 18, 19, 20, 
21, 22, 23, 24, 25, 26, 27, 28, 29, 30, 
31, 32, 33, 34, 35, 36, 37, 38, 39, 40, 
41, 42, 43, 44, 45, 46, 47, 48, 49, 50, 
51, 52, 53, 54, 55, 56, 57, 58, 59, 60, 
61, 62, 63, 64, 65, 66, 67, 68, 69, 70, 
71, 72, 73, 74, 75, 76, 77, 78, 79, 80, 
81, 82, 83, 84, 85, 86, 87, 88, 89, 90, 
91, 92, 93, 94, 95, 96, 97, 98, 99, 100, 
101, 102, 103, 104, 105, 106, 107, 108, 109, 110, 
111, 112, 113, 114, 115, 116, 117, 118, 119, 120, 
121, 122, 123, 124, 125, 126, 127, 128, 129, 130, 
131, 132, 133, 134, 135, 136, 137, 138, 139, 140, 
141, 142, 143, 144, 145, 146, 147, 148, 149, 150, 
151, 152, 153, 154, 155, 156, 157, 158, 159, 160, 
161, 162, 163, 164, 165, 166, 167, 168, 169, 170, 
171, 172, 173, 174, 175, 176, 177, 178, 179, 180, 
181, 182, 183, 184, 185, 186, 187, 188, 189, 190, 
191, 192, 193, 194, 195, 196, 197, 198, 199, 200, 
201, 202, 203, 204, 205, 206, 207, 208, 209, 210, 
211, 212, 213, 214, 215, 216, 217, 218, 219, 220, 
221, 222, 223, 224, 225, 226, 227, 228, 229, 230, 
231, 232, 233, 234, 235, 236, 237, 238, 239, 240, 
241, 242, 243, 244, 245, 246, 247, 248, 249, 250, 
251, 252, 253, 254, 255, 256, 257, 258, 259, 260, 
261, 262, 263, 264, 265, 266, 267, 268, 269, 270, 
271, 272, 273, 274, 275, 276, 277, 278, 279, 280, 
281, 282, 283, 284, 285, 286, 287, 288, 289, 290, 
291, 292, 293, 294, 295, 296, 297, 298, 299, 300, 
301, 302, 303, 304, 305, 306, 307, 308, 309, 310, 
311, 312, 313, 314, 315, 316, 317, 318, 319, 320, 
321, 322, 323, 324, 325, 326, 327, 328, 329, 330, 
331, 332, 333, 334, 335, 336, 337, 338, 339, 340, 
341, 342, 343, 344, 345, 346, 347, 348, 349, 350, 
351, 352, 353, 354, 355, 356, 357, 358, 359, 360, 
361, 362, 363, 364, 365, 366, 367, 368, 369, 370, 
371, 372, 373, 374, 375, 376, 377, 378, 379, 380, 
381, 382, 383, 384, 385, 386, 387, 388, 389, 390, 
391, 392, 393, 394, 395, 396, 397, 398, 399, 400, 
401, 402, 403, 404, 405, 406, 407, 408, 409, 410, 
411, 412, 413, 414, 415, 416, 417, 418, 419, 420, 
421, 422, 423, 424, 425, 426, 427, 428, 429, 430, 
431, 432, 433, 434, 435, 436, 437, 438, 439, 440, 
441, 442, 443, 444, 445, 446, 447, 448, 449, 450, 
451, 452, 453, 454, 455, 456, 457, 458, 459, 460, 
461, 462, 463, 464, 465, 466, 467, 468, 469, 470, 
471, 472, 473, 474, 475, 476, 477, 478, 479, 480, 
481, 482, 483, 484, 485, 486, 487, 488, 489, 490, 
491, 492, 493, 494, 495, 496, 497, 498, 499, 500, 
501, 502, 503, 504, 505, 506, 507, 508, 509, 510, 
511, 512, 513, 514, 515, 516, 517, 518, 519, 520, 
521, 522, 523, 524, 525, 526, 527, 528, 529, 530, 
531, 532, 533, 534, 535, 536, 537, 538, 539, 540, 
541, 542, 543, 544, 545, 546, 547, 548, 549, 550, 
551, 552, 553, 554, 555, 556, 557, 558, 559, 560, 
561, 562, 563, 564, 565, 566, 567, 568, 569, 570, 
571, 572, 573, 574, 575, 576, 577, 578, 579, 580, 
581, 582, 583, 584, 585, 586, 587, 588, 589, 590, 
591, 592, 593, 594, 595, 596, 597, 598, 599, 600, 
601, 602, 603, 604, 605, 606, 607, 608, 609, 610, 
611, 612, 613, 614, 615, 616, 617, 618, 619, 620, 
621, 622, 623, 624, 625, 626, 627, 628, 629, 630, 
631, 632, 633, 634, 635, 636, 637, 638, 639, 640, 
641, 642, 643, 644, 645, 646, 647, 648, 649, 650, 
651, 652, 653, 654, 655, 656, 657, 658, 659, 660, 
661, 662, 663, 664, 665, 666, 667, 668, 669, 670, 
671, 672, 673, 674, 675, 676, 677, 678, 679, 680, 
681, 682, 683, 684, 685, 686, 687, 688, 689, 690, 
691, 692, 693, 694, 695, 696, 697, 698, 699, 700, 
701, 702, 703, 704, 705, 706, 707, 708, 709, 710, 
711, 712, 713, 714, 715, 716, 717, 718, 719, 720, 
721, 722, 723, 724, 725, 726, 727, 728, 729, 730, 
731, 732, 733, 734, 735, 736, 737, 738, 739, 740, 
741, 742, 743, 744, 745, 746, 747, 748, 749, 750, 
751, 752, 753, 754, 755, 756, 757, 758, 759, 760, 
761, 762, 763, 764, 765, 766, 767, 768, 769, 770, 
771, 772, 773, 774, 775, 776, 777, 778, 779, 780, 
781, 782, 783, 784, 785, 786, 787, 788, 789, 790, 
791, 792, 793, 794, 795, 796, 797, 798, 799, 800, 
801, 802, 803, 804, 805, 806, 807, 808, 809, 810, 
811, 812, 813, 814, 815, 816, 817, 818, 819, 820, 
821, 822, 823, 824, 825, 826, 827, 828, 829, 830, 
831, 832, 833, 834, 835, 836, 837, 838, 839, 840, 
841, 842, 843, 844, 845, 846, 847, 848, 849, 850, 
851, 852, 853, 854, 855, 856, 857, 858, 859, 860, 
861, 862, 863, 864, 865, 866, 867, 868, 869, 870, 
871, 872, 873, 874, 875, 876, 877, 878, 879, 880, 
881, 882, 883, 884, 885, 886, 887, 888, 889, 890, 
891, 892, 893, 894, 895, 896, 897, 898, 899, 900, 
901, 902, 903, 904, 905, 906, 907, 908, 909, 910, 
911, 912, 913, 914, 915, 916, 917, 918, 919, 920, 
921, 922, 923, 924, 925, 926, 927, 928, 929, 930, 
931, 932, 933, 934, 935, 936, 937, 938, 939, 940, 
941, 942, 943, 944, 945, 946, 947, 948, 949, 950, 
951, 952, 953, 954, 955, 956, 957, 958, 959, 960, 
961, 962, 963, 964, 965, 966, 967, 968, 969, 970, 
971, 972, 973, 974, 975, 976, 977, 978, 979, 980, 
981, 982, 983, 984, 985, 986, 987, 988, 989, 990, 
991, 992, 993, 994, 995, 996, 997, 998, 999, 1000, 
1001, 1002, 1003, 1004, 1005, 1006, 1007, 1008, 1009, 1010, 
1011, 1012, 1013, 1014, 1015, 1016, 1017, 1018, 1019, 1020, 
1021, 1022, 1023, 1024, 1025, 1026, 1027, 1028, 1029, 1030, 
1031, 1032, 1033, 1034, 1035, 1036, 1037, 1038, 1039, 1040, 
1041, 1042, 1043, 1044, 1045, 1046, 1047, 1048, 1049, 1050, 
1051, 1052, 1053, 1054, 1055, 1056, 1057, 1058, 1059, 1060, 
1061, 1062, 1063, 1064, 1065, 1066, 1067, 1068, 1069, 1070, 
1071, 1072, 1073, 1074, 1075, 1076, 1077, 1078, 1079, 1080, 
1081, 1082, 1083, 1084, 1085, 1086, 1087, 1088, 1089, 1090, 
1091, 1092, 1093, 1094, 1095, 1096, 1097, 1098, 1099, 1100, 
1101, 1102, 1103, 1104, 1105, 1106, 1107, 1108, 1109, 1110, 
1111, 1112, 1113, 1114, 1115, 1116, 1117, 1118, 1119, 1120, 
1121, 1122, 1123, 1124, 1125, 1126, 1127, 1128, 1129, 1130, 
1131, 1132, 1133, 1134, 1135, 1136, 1137, 1138, 1139, 1140, 
1141, 1142, 1143, 1144, 1145, 1146, 1147, 1148, 1149, 1150, 
1151, 1152, 1153, 1154, 1155, 1156, 1157, 1158, 1159, 1160, 
1161, 1162, 1163, 1164, 1165, 1166, 1167, 1168, 1169, 1170, 
1171, 1172, 1173, 1174, 1175, 1176, 1177, 1178, 1179, 1180, 
1181, 1182, 1183, 1184, 1185, 1186, 1187, 1188, 1189, 1190, 
1191, 1192, 1193, 1194, 1195, 1196, 1197, 1198, 1199, 1200, 
1201, 1202, 1203, 1204, 1205, 1206, 1207, 1208, 1209, 1210, 
1211, 1212, 1213, 1214, 1215, 1216, 1217, 1218, 1219, 1220, 
1221, 1222, 1223, 1224, 1225, 1226, 1227, 1228, 1229, 1230, 
1231, 1232, 1233, 1234, 1235, 1236, 1237, 1238, 1239, 1240, 
1241, 1242, 1243, 1244, 1245, 1246, 1247, 1248, 1249, 1250, 
1251, 1252, 1253, 1254, 1255, 1256, 1257, 1258, 1259, 1260, 
1261, 1262, 1263, 1264, 1265, 1266, 1267, 1268, 1269, 1270, 
1271, 1272, 1273, 1274, 1275, 1276, 1277, 1278, 1279, 1280, 
1281, 1282, 1283, 1284, 1285, 1286, 1287, 1288, 1289, 1290, 
1291, 1292, 1293, 1294, 1295, 1296, 1297, 1298, 1299, 1300, 
1301, 1302, 1303, 1304, 1305, 1306, 1307, 1308, 1309, 1310, 
1311, 1312, 1313, 1314, 1315, 1316, 1317, 1318, 1319, 1320, 
1321, 1322, 1323, 1324, 1325, 1326, 1327, 1328, 1329, 1330, 
1331, 1332, 1333, 1334, 1335, 1336, 1337, 1338, 1339, 1340, 
1341, 1342, 1343, 1344, 1345, 1346, 1347, 1348, 1349, 1350, 
1351, 1352, 1353, 1354, 1355, 1356, 1357, 1358, 1359, 1360, 
1361, 1362, 1363, 1364, 1365, 1366, 1367, 1368, 1369, 1370, 
1371, 1372, 1373, 1374, 1375, 1376, 1377, 1378, 1379, 1380, 
1381, 1382, 1383, 1384, 1385, 1386, 1387, 1388, 1389, 1390, 
1391, 1392, 1393, 1394, 1395, 1396, 1397, 1398, 1399, 1400, 
1401, 1402, 1403, 1404, 1405, 1406, 1407, 1408, 1409, 1410, 
1411, 1412, 1413, 1414, 1415, 1416, 1417, 1418, 1419, 1420, 
1421, 1422, 1423, 1424, 1425, 1426, 1427, 1428, 1429, 1430, 
1431, 1432, 1433, 1434, 1435, 1436, 1437, 1438, 1439, 1440, 
1441, 1442, 1443, 1444, 1445, 1446, 1447, 1448, 1449, 1450, 
1451, 1452, 1453, 1454, 1455, 1456, 1457, 1458, 1459, 1460, 
1461, 1462, 1463, 1464, 1465, 1466, 1467, 1468, 1469, 1470, 
1471, 1472, 1473, 1474, 1475, 1476, 1477, 1478, 1479, 1480, 
1481, 1482, 1483, 1484, 1485, 1486, 1487, 1488, 1489, 1490, 
1491, 1492, 1493, 1494, 1495, 1496, 1497, 1498, 1499, 1500, 
1501, 1502, 1503, 1504, 1505, 1506, 1507, 1508, 1509, 1510, 
1511, 1512, 1513, 1514, 1515, 1516, 1517, 1518, 1519, 1520, 
1521, 1522, 1523, 1524, 1525, 1526, 1527, 1528, 1529, 1530, 
1531, 1532, 1533, 1534, 1535, 1536, 1537, 1538, 1539, 1540, 
1541, 1542, 1543, 1544, 1545, 1546, 1547, 1548, 1549, 1550, 
1551, 1552, 1553, 1554, 1555, 1556, 1557, 1558, 1559, 1560, 
1561, 1562, 1563, 1564, 1565, 1566, 1567, 1568, 1569, 1570, 
1571, 1572, 1573, 1574, 1575, 1576, 1577, 1578, 1579, 1580, 
1581, 1582, 1583, 1584, 1585, 1586, 1587, 1588, 1589, 1590, 
1591, 1592, 1593, 1594, 1595, 1596, 1597, 1598, 1599, 1600, 
1601, 1602, 1603, 1604, 1605, 1606, 1607, 1608, 1609, 1610, 
1611, 1612, 1613, 1614, 1615, 1616, 1617, 1618, 1619, 1620, 
1621, 1622, 1623, 1624, 1625, 1626, 1627, 1628, 1629, 1630, 
1631, 1632, 1633, 1634, 1635, 1636, 1637, 1638, 1639, 1640, 
1641, 1642, 1643, 1644, 1645, 1646, 1647, 1648, 1649, 1650, 
1651, 1652, 1653, 1654, 1655, 1656, 1657, 1658, 1659, 1660, 
1661, 1662, 1663, 1664, 1665, 1666, 1667, 1668, 1669, 1670, 
1671, 1672, 1673, 1674, 1675, 1676, 1677, 1678, 1679, 1680, 
1681, 1682, 1683, 1684, 1685, 1686, 1687, 1688, 1689, 1690, 
1691, 1692, 1693, 1694, 1695, 1696, 1697, 1698, 1699, 1700, 
1701, 1702, 1703, 1704, 1705, 1706, 1707, 1708, 1709, 1710, 
1711, 1712, 1713, 1714, 1715, 1716, 1717, 1718, 1719, 1720, 
1721, 1722, 1723, 1724, 1725, 1726, 1727, 1728, 1729, 1730, 
1731, 1732, 1733, 1734, 1735, 1736, 1737, 1738, 1739, 1740, 
1741, 1742, 1743, 1744, 1745, 1746, 1747, 1748, 1749, 1750, 
1751, 1752, 1753, 1754, 1755, 1756, 1757, 1758, 1759, 1760, 
1761, 1762, 1763, 1764, 1765, 1766, 1767, 1768, 1769, 1770, 
1771, 1772, 1773, 1774, 1775, 1776, 1777, 1778, 1779, 1780, 
1781, 1782, 1783, 1784, 1785, 1786, 1787, 1788, 1789, 1790, 
1791, 1792, 1793, 1794, 1795, 1796, 1797, 1798, 1799, 1800, 
1801, 1802, 1803, 1804, 1805, 1806, 1807, 1808, 1809, 1810, 
1811, 1812, 1813, 1814, 1815, 1816, 1817, 1818, 1819, 1820, 
1821, 1822, 1823, 1824, 1825, 1826, 1827, 1828, 1829, 1830, 
1831, 1832, 1833, 1834, 1835, 1836, 1837, 1838, 1839, 1840, 
1841, 1842, 1843, 1844, 1845, 1846, 1847, 1848, 1849, 1850, 
1851, 1852, 1853, 1854, 1855, 1856, 1857, 1858, 1859, 1860, 
1861, 1862, 1863, 1864, 1865, 1866, 1867, 1868, 1869, 1870, 
1871, 1872, 1873, 1874, 1875, 1876, 1877, 1878, 1879, 1880, 
1881, 1882, 1883, 1884, 1885, 1886, 1887, 1888, 1889, 1890, 
1891, 1892, 1893, 1894, 1895, 1896, 1897, 1898, 1899, 1900, 
1901, 1902, 1903, 1904, 1905, 1906, 1907, 1908, 1909, 1910, 
1911, 1912, 1913, 1914, 1915, 1916, 1917, 1918, 1919, 1920, 
1921, 1922, 1923, 1924, 1925, 1926, 1927, 1928, 1929, 1930, 
1931, 1932, 1933, 1934, 1935, 1936, 1937, 1938, 1939, 1940, 
1941, 1942, 1943, 1944, 1945, 1946, 1947, 1948, 1949, 1950, 
1951, 1952, 1953, 1954, 1955, 1956, 1957, 1958, 1959, 1960, 
1961, 1962, 1963, 1964, 1965, 1966, 1967, 1968, 1969, 1970, 
1971, 1972, 1973, 1974, 1975, 1976, 1977, 1978, 1979, 1980, 
1981, 1982, 1983, 1984, 1985, 1986, 1987, 1988, 1989, 1990, 
1991, 1992, 1993, 1994, 1995, 1996, 1997, 1998, 1999, 2000, 
2001, 2002, 2003, 2004, 2005, 2006, 2007, 2008, 2009, 2010, 
2011, 2012, 2013, 2014, 2015, 2016, 2017, 2018, 2019, 2020, 
2021, 2022, 2023, 2024, 2025, 2026, 2027, 2028, 2029, 2030, 
2031, 2032, 2033, 2034, 2035, 2036, 2037, 2038, 2039, 2040, 
2041, 2042, 2043, 2044, 2045, 2046, 2047, 2048, 2049, 2050, 
2051, 2052, 2053, 2054, 2055, 2056, 2057, 2058, 2059, 2060, 
2061, 2062, 2063, 2064, 2065, 2066, 2067, 2068, 2069, 2070, 
2071, 2072, 2073, 2074, 2075, 2076, 2077, 2078, 2079, 2080, 
2081, 2082, 2083, 2084, 2085, 2086, 2087, 2088, 2089, 2090, 
2091, 2092, 2093, 2094, 2095, 2096, 2097, 2098, 2099, 2100, 
2101, 2102, 2103, 2104, 2105, 2106, 2107, 2108, 2109, 2110, 
2111, 2112, 2113, 2114, 2115, 2116, 2117, 2118, 2119, 2120, 
2121, 2122, 2123, 2124, 2125, 2126, 2127, 2128, 2129, 2130, 
2131, 2132, 2133, 2134, 2135, 2136, 2137, 2138, 2139, 2140, 
2141, 2142, 2143, 2144, 2145, 2146, 2147, 2148, 2149, 2150, 
2151, 2152, 2153, 2154, 2155, 2156, 2157, 2158, 2159, 2160, 
2161, 2162, 2163, 2164, 2165, 2166, 2167, 2168, 2169, 2170, 
2171, 2172, 2173, 2174, 2175, 2176, 2177, 2178, 2179, 2180, 
2181, 2182, 2183, 2184, 2185, 2186, 2187, 2188, 2189, 2190, 
2191, 2192, 2193, 2194, 2195, 2196, 2197, 2198, 2199, 2200, 
2201, 2202, 2203, 2204, 2205, 2206, 2207, 2208, 2209, 2210, 
2211, 2212, 2213, 2214, 2215, 2216, 2217, 2218, 2219, 2220, 
2221, 2222, 2223, 2224, 2225, 2226, 2227, 2228, 2229, 2230, 
2231, 2232, 2233, 2234, 2235, 2236, 2237, 2238, 2239, 2240, 
2241, 2242, 2243, 2244, 2245, 2246, 2247, 2248, 2249, 2250, 
2251, 2252, 2253, 2254, 2255, 2256, 2257, 2258, 2259, 2260, 
2261, 2262, 2263, 2264, 2265, 2266, 2267, 2268, 2269, 2270, 
2271, 2272, 2273, 2274, 2275, 2276, 2277, 2278, 2279, 2280, 
2281, 2282, 2283, 2284, 2285, 2286, 2287, 2288, 2289, 2290, 
2291, 2292, 2293, 2294, 2295, 2296, 2297, 2298, 2299, 2300, 
2301, 2302, 2303, 2304, 2305, 2306, 2307, 2308, 2309, 2310, 
2311, 2312, 2313, 2314, 2315, 2316, 2317, 2318, 2319, 2320, 
2321, 2322, 2323, 2324, 2325, 2326, 2327, 2328, 2329, 2330, 
2331, 2332, 2333, 2334, 2335, 2336, 2337, 2338, 2339, 2340, 
2341, 2342, 2343, 2344, 2345, 2346, 2347, 2348, 2349, 2350, 
2351, 2352, 2353, 2354, 2355, 2356, 2357, 2358, 2359, 2360, 
2361, 2362, 2363, 2364, 2365, 2366, 2367, 2368, 2369, 2370, 
2371, 2372, 2373, 2374, 2375, 2376, 2377, 2378, 2379, 2380, 
2381, 2382, 2383, 2384, 2385, 2386, 2387, 2388, 2389, 2390, 
2391, 2392, 2393, 2394, 2395, 2396, 2397, 2398, 2399, 2400, 
2401, 2402, 2403, 2404, 2405, 2406, 2407, 2408, 2409, 2410, 
2411, 2412, 2413, 2414, 2415, 2416, 2417, 2418, 2419, 2420, 
2421, 2422, 2423, 2424, 2425, 2426, 2427, 2428, 2429, 2430, 
2431, 2432, 2433, 2434, 2435, 2436, 2437, 2438, 2439, 2440, 
2441, 2442, 2443, 2444, 2445, 2446, 2447, 2448, 2449, 2450, 
2451, 2452, 2453, 2454, 2455, 2456, 2457, 2458, 2459, 2460, 
2461, 2462, 2463, 2464, 2465, 2466, 2467, 2468, 2469, 2470, 
2471, 2472, 2473, 2474, 2475, 2476, 2477, 2478, 2479, 2480, 
2481, 2482, 2483, 2484, 2485, 2486, 2487, 2488, 2489, 2490, 
2491, 2492, 2493, 2494, 2495, 2496, 2497, 2498, 2499, 2500, 
2501, 2502, 2503, 2504, 2505, 2506, 2507, 2508, 2509, 2510, 
2511, 2512, 2513, 2514, 2515, 2516, 2517, 2518, 2519, 2520, 
2521, 2522, 2523, 2524, 2525, 2526, 2527, 2528, 2529, 2530, 
2531, 2532, 2533, 2534, 2535, 2536, 2537, 2538, 2539, 2540, 
2541, 2542, 2543, 2544, 2545, 2546, 2547, 2548, 2549, 2550, 
2551, 2552, 2553, 2554, 2555, 2556, 2557, 2558, 2559, 2560, 
2561, 2562, 2563, 2564, 2565, 2566, 2567, 2568, 2569, 2570, 
2571, 2572, 2573, 2574, 2575, 2576, 2577, 2578, 2579, 2580, 
2581, 2582, 2583, 2584, 2585, 2586, 2587, 2588, 2589, 2590, 
2591, 2592, 2593, 2594, 2595, 2596, 2597, 2598, 2599, 2600, 
2601, 2602, 2603, 2604, 2605, 2606, 2607, 2608, 2609, 2610, 
2611, 2612, 2613, 2614, 2615, 2616, 2617, 2618, 2619, 2620, 
2621, 2622, 2623, 2624, 2625, 2626, 2627, 2628, 2629, 2630, 
2631, 2632, 2633, 2634, 2635, 2636, 2637, 2638, 2639, 2640, 
2641, 2642, 2643, 2644, 2645, 2646, 2647, 2648, 2649, 2650, 
2651, 2652, 2653, 2654, 2655, 2656, 2657, 2658, 2659, 2660, 
2661, 2662, 2663, 2664, 2665, 2666, 2667, 2668, 2669, 2670, 
2671, 2672, 2673, 2674, 2675, 2676, 2677, 2678, 2679, 2680, 
2681, 2682, 2683, 2684, 2685, 2686, 2687, 2688, 2689, 2690, 
2691, 2692, 2693, 2694, 2695, 2696, 2697, 2698, 2699, 2700, 
2701, 2702, 2703, 2704, 2705, 2706, 2707, 2708, 2709, 2710, 
2711, 2712, 2713, 2714, 2715, 2716, 2717, 2718, 2719, 2720, 
2721, 2722, 2723, 2724, 2725, 2726, 2727, 2728, 2729, 2730, 
2731, 2732, 2733, 2734, 2735, 2736, 2737, 2738, 2739, 2740, 
2741, 2742, 2743, 2744, 2745, 2746, 2747, 2748, 2749, 2750, 
2751, 2752, 2753, 2754, 2755, 2756, 2757, 2758, 2759, 2760, 
2761, 2762, 2763, 2764, 2765, 2766, 2767, 2768, 2769, 2770, 
2771, 2772, 2773, 2774, 2775, 2776, 2777, 2778, 2779, 2780, 
2781, 2782, 2783, 2784, 2785, 2786, 2787, 2788, 2789, 2790, 
2791, 2792, 2793, 2794, 2795, 2796, 2797, 2798, 2799, 2800, 
2801, 2802, 2803, 2804, 2805, 2806, 2807, 2808, 2809, 2810, 
2811, 2812, 2813, 2814, 2815, 2816, 2817, 2818, 2819, 2820, 
2821, 2822, 2823, 2824, 2825, 2826, 2827, 2828, 2829, 2830, 
2831, 2832, 2833, 2834, 2835, 2836, 2837, 2838, 2839, 2840, 
2841, 2842, 2843, 2844, 2845, 2846, 2847, 2848, 2849, 2850, 
2851, 2852, 2853, 2854, 2855, 2856, 2857, 2858, 2859, 2860, 
2861, 2862, 2863, 2864, 2865, 2866, 2867, 2868, 2869, 2870, 
2871, 2872, 2873, 2874, 2875, 2876, 2877, 2878, 2879, 2880, 
2881, 2882, 2883, 2884, 2885, 2886, 2887, 2888, 2889, 2890, 
2891, 2892, 2893, 2894, 2895, 2896, 2897, 2898, 2899, 2900, 
2901, 2902, 2903, 2904, 2905, 2906, 2907, 2908, 2909, 2910, 
2911, 2912, 2913, 2914, 2915, 2916, 2917, 2918, 2919, 2920, 
2921, 2922, 2923, 2924, 2925, 2926, 2927, 2928, 2929, 2930, 
2931, 2932, 2933, 2934, 2935, 2936, 2937, 2938, 2939, 2940, 
2941, 2942, 2943, 2944, 2945, 2946, 2947, 2948, 2949, 2950, 
2951, 2952, 2953, 2954, 2955, 2956, 2957, 2958, 2959, 2960, 
2961, 2962, 2963, 2964, 2965, 2966, 2967, 2968, 2969, 2970, 
2971, 2972, 2973, 2974, 2975, 2976, 2977, 2978, 2979, 2980, 
2981, 2982, 2983, 2984, 2985, 2986, 2987, 2988, 2989, 2990, 
2991, 2992, 2993, 2994, 2995, 2996, 2997, 2998, 2999, 3000, 
3001, 3002, 3003, 3004, 3005, 3006, 3007, 3008, 3009, 3010, 
3011, 3012, 3013, 3014, 3015, 3016, 3017, 3018, 3019, 3020, 
3021, 3022, 3023, 3024, 3025, 3026, 3027, 3028, 3029, 3030, 
3031, 3032, 3033, 3034, 3035, 3036, 3037, 3038, 3039, 3040, 
3041, 3042, 3043, 3044, 3045, 3046, 3047, 3048, 3049, 3050, 
3051, 3052, 3053, 3054, 3055, 3056, 3057, 3058, 3059, 3060, 
3061, 3062, 3063, 3064, 3065, 3066, 3067, 3068, 3069, 3070, 
3071, 3072, 3073, 3074, 3075, 3076, 3077, 3078, 3079, 3080, 
3081, 3082, 3083, 3084, 3085, 3086, 3087, 3088, 3089, 3090, 
3091, 3092, 3093, 3094, 3095, 3096, 3097, 3098, 3099, 3100, 
3101, 3102, 3103, 3104, 3105, 3106, 3107, 3108, 3109, 3110, 
3111, 3112, 3113, 3114, 3115, 3116, 3117, 3118, 3119, 3120, 
3121, 3122, 3123, 3124, 3125, 3126, 3127, 3128, 3129, 3130, 
3131, 3132, 3133, 3134, 3135, 3136, 3137, 3138, 3139, 3140, 
3141, 3142, 3143, 3144, 3145, 3146, 3147, 3148, 3149, 3150, 
3151, 3152, 3153, 3154, 3155, 3156, 3157, 3158, 3159, 3160, 
3161, 3162, 3163, 3164, 3165, 3166, 3167, 3168, 3169, 3170, 
3171, 3172, 3173, 3174, 3175, 3176, 3177, 3178, 3179, 3180, 
3181, 3182, 3183, 3184, 3185, 3186, 3187, 3188, 3189, 3190, 
3191, 3192, 3193, 3194, 3195, 3196, 3197, 3198, 3199, 3200, 
3201, 3202, 3203, 3204, 3205, 3206, 3207, 3208, 3209, 3210, 
3211, 3212, 3213, 3214, 3215, 3216, 3217, 3218, 3219, 3220, 
3221, 3222, 3223, 3224, 3225, 3226, 3227, 3228, 3229, 3230, 
3231, 3232, 3233, 3234, 3235, 3236, 3237, 3238, 3239, 3240, 
3241, 3242, 3243, 3244, 3245, 3246, 3247, 3248, 3249, 3250, 
3251, 3252, 3253, 3254, 3255, 3256, 3257, 3258, 3259, 3260, 
3261, 3262, 3263, 3264, 3265, 3266, 3267, 3268, 3269, 3270, 
3271, 3272, 3273, 3274, 3275, 3276, 3277, 3278, 3279, 3280, 
3281, 3282, 3283, 3284, 3285, 3286, 3287, 3288, 3289, 3290, 
3291, 3292, 3293, 3294, 3295, 3296, 3297, 3298, 3299, 3300, 
3301, 3302, 3303, 3304, 3305, 3306, 3307, 3308, 3309, 3310, 
3311, 3312, 3313, 3314, 3315, 3316, 3317, 3318, 3319, 3320, 
3321, 3322, 3323, 3324, 3325, 3326, 3327, 3328, 3329, 3330, 
3331, 3332, 3333, 3334, 3335, 3336, 3337, 3338, 3339, 3340, 
3341, 3342, 3343, 3344, 3345, 3346, 3347, 3348, 3349, 3350, 
3351, 3352, 3353, 3354, 3355, 3356, 3357, 3358, 3359, 3360, 
3361, 3362, 3363, 3364, 3365, 3366, 3367, 3368, 3369, 3370, 
3371, 3372, 3373, 3374, 3375, 3376, 3377, 3378, 3379, 3380, 
3381, 3382, 3383, 3384, 3385, 3386, 3387, 3388, 3389, 3390, 
3391, 3392, 3393, 3394, 3395, 3396, 3397, 3398, 3399, 3400, 
3401, 3402, 3403, 3404, 3405, 3406, 3407, 3408, 3409, 3410, 
3411, 3412, 3413, 3414, 3415, 3416, 3417, 3418, 3419, 3420, 
3421, 3422, 3423, 3424, 3425, 3426, 3427, 3428, 3429, 3430, 
3431, 3432, 3433, 3434, 3435, 3436, 3437, 3438, 3439, 3440, 
3441, 3442, 3443, 3444, 3445, 3446, 3447, 3448, 3449, 3450, 
3451, 3452, 3453, 3454, 3455, 3456, 3457, 3458, 3459, 3460, 
3461, 3462, 3463, 3464, 3465, 3466, 3467, 3468, 3469, 3470, 
3471, 3472, 3473, 3474, 3475, 3476, 3477, 3478, 3479, 3480, 
3481, 3482, 3483, 3484, 3485, 3486, 3487, 3488, 3489, 3490, 
3491, 3492, 3493, 3494, 3495, 3496, 3497, 3498, 3499, 3500, 
3501, 3502, 3503, 3504, 3505, 3506, 3507, 3508, 3509, 3510, 
3511, 3512, 3513, 3514, 3515, 3516, 3517, 3518, 3519, 3520, 
3521, 3522, 3523, 3524, 3525, 3526, 3527, 3528, 3529, 3530, 
3531, 3532, 3533, 3534, 3535, 3536, 3537, 3538, 3539, 3540, 
3541, 3542, 3543, 3544, 3545, 3546, 3547, 3548, 3549, 3550, 
3551, 3552, 3553, 3554, 3555, 3556, 3557, 3558, 3559, 3560, 
3561, 3562, 3563, 3564, 3565, 3566, 3567, 3568, 3569, 3570, 
3571, 3572, 3573, 3574, 3575, 3576, 3577, 3578, 3579, 3580, 
3581, 3582, 3583, 3584, 3585, 3586, 3587, 3588, 3589, 3590, 
3591, 3592, 3593, 3594, 3595, 3596, 3597, 3598, 3599, 3600, 
3601, 3602, 3603, 3604, 3605, 3606, 3607, 3608, 3609, 3610, 
3611, 3612, 3613, 3614, 3615, 3616, 3617, 3618, 3619, 3620, 
3621, 3622, 3623, 3624, 3625, 3626, 3627, 3628, 3629, 3630, 
3631, 3632, 3633, 3634, 3635, 3636, 3637, 3638, 3639, 3640, 
3641, 3642, 3643, 3644, 3645, 3646, 3647, 3648, 3649, 3650, 
3651, 3652, 3653, 3654, 3655, 3656, 3657, 3658, 
